c description: Random 3-CNF over 250 variables and 1065 clauses
c generator: CNFgen (0.9.5)
c copyright: (C) 2012-2026 Massimo Lauria <massimo.lauria@uniroma1.it>
c url: https://massimolauria.net/cnfgen
c random seed: 1
c command line: cnfgen -S 1 --output rand3sat_250_1065.cnf randkcnf 3 250 1065
c
p cnf 250 1065
35 -146 217 0
-116 -127 195 0
-8 -25 125 0
69 115 -179 0
6 -7 8 0
109 186 -249 0
127 -142 241 0
-57 -174 195 0
107 215 -235 0
-31 86 -191 0
-73 -151 250 0
-63 -123 191 0
-94 141 -226 0
28 -131 -170 0
-8 126 -188 0
-158 181 218 0
4 59 -129 0
-89 -132 -244 0
141 -156 169 0
133 -144 200 0
94 -124 -223 0
-92 107 -209 0
8 118 154 0
-24 205 221 0
-5 22 -223 0
29 -64 -69 0
-18 41 -43 0
-76 -166 -183 0
-7 -30 -122 0
-49 108 -204 0
131 -187 231 0
5 58 102 0
-115 130 -181 0
58 -135 -167 0
110 -162 169 0
55 -225 248 0
-20 80 -220 0
34 65 145 0
-146 231 247 0
52 89 -97 0
50 -127 -152 0
-5 -128 -130 0
-5 41 -52 0
55 -69 -110 0
-215 226 235 0
11 22 186 0
-55 -138 -234 0
87 -88 95 0
-155 223 242 0
11 -83 105 0
33 -88 213 0
58 -141 -147 0
76 -145 -229 0
-12 28 202 0
24 30 106 0
108 151 -202 0
43 62 -175 0
-97 -234 -247 0
-26 54 81 0
-3 -202 -237 0
81 101 -103 0
117 -154 249 0
-159 -200 -201 0
-47 54 139 0
-21 93 -210 0
-24 148 -167 0
-11 79 -248 0
-149 203 -217 0
26 140 157 0
-6 63 -207 0
19 142 223 0
-75 -193 -203 0
40 -220 221 0
131 171 244 0
-37 -211 222 0
-132 182 214 0
37 -140 234 0
46 77 111 0
-17 -65 -200 0
-113 139 -218 0
-44 -87 215 0
-166 204 239 0
91 149 178 0
-67 -71 213 0
-23 60 157 0
-82 129 136 0
-81 127 -176 0
-87 144 157 0
-19 196 236 0
-77 -80 178 0
119 180 -189 0
-40 46 65 0
-101 -127 175 0
11 -140 187 0
69 189 234 0
114 -218 -237 0
-43 -102 233 0
125 160 -233 0
105 -137 -154 0
64 97 -192 0
6 -8 149 0
38 -45 -73 0
-65 150 -194 0
108 126 -220 0
53 73 208 0
-4 146 192 0
-96 -129 -147 0
83 136 -195 0
-90 -116 -184 0
-175 188 -201 0
53 -98 143 0
-119 -154 237 0
116 -159 172 0
-100 -149 -174 0
150 -160 221 0
-164 167 -248 0
-40 -162 185 0
19 -197 -209 0
-106 182 -205 0
67 -125 214 0
-26 70 -131 0
18 114 169 0
-24 -103 177 0
-54 -61 136 0
-20 -179 213 0
-44 -77 168 0
101 -103 -144 0
85 -157 222 0
-8 -170 -217 0
-64 195 239 0
-43 161 -188 0
42 118 -135 0
-80 93 193 0
-53 175 184 0
-59 83 102 0
12 15 208 0
-127 -136 -181 0
31 157 178 0
-60 -103 127 0
-60 -61 -250 0
-55 -116 -184 0
29 152 233 0
-2 -4 -205 0
74 -149 218 0
195 212 226 0
38 -100 -225 0
-21 34 119 0
16 135 -138 0
31 111 200 0
-34 128 -164 0
-85 -100 162 0
16 -63 -151 0
144 -155 -179 0
-52 138 -183 0
157 -185 191 0
25 39 -250 0
12 -14 -219 0
11 26 -81 0
-33 -171 230 0
70 -135 -189 0
-9 22 -78 0
-34 -81 189 0
78 -174 220 0
-53 -129 -143 0
-150 230 245 0
115 -168 209 0
-52 95 -100 0
33 89 -148 0
-167 -205 -209 0
-70 82 91 0
-39 -82 235 0
-72 -116 -123 0
209 228 237 0
-13 126 -135 0
-93 -205 -242 0
88 119 154 0
57 65 176 0
106 197 -241 0
-28 53 183 0
19 204 -219 0
-6 -95 152 0
-52 154 -229 0
94 -116 173 0
-209 -216 250 0
-3 -137 192 0
-104 158 -226 0
2 -118 218 0
-31 -139 -211 0
-106 -135 -139 0
-34 78 130 0
-3 65 -163 0
73 103 108 0
-2 -99 -217 0
-96 -201 -204 0
-30 -117 206 0
5 -38 -107 0
-33 -151 -220 0
-74 -132 -241 0
-86 199 -234 0
-103 244 249 0
34 53 248 0
-27 40 -65 0
48 167 -186 0
14 -157 -245 0
13 -167 243 0
68 -72 176 0
55 -174 202 0
-76 -115 172 0
123 156 -219 0
158 180 -232 0
-107 -191 228 0
-160 -195 202 0
-3 -187 194 0
-113 139 161 0
70 -71 131 0
-34 50 66 0
-70 -106 -243 0
-55 -69 -126 0
46 -62 87 0
15 84 -130 0
-123 127 160 0
-36 179 228 0
138 163 213 0
-52 -58 -145 0
-2 6 199 0
-58 -72 -191 0
-6 32 85 0
65 198 -231 0
20 -24 -186 0
64 -69 136 0
-21 -36 237 0
-25 85 -174 0
-29 243 -246 0
-24 -104 -174 0
-57 78 230 0
29 131 154 0
71 -112 -230 0
-68 136 -242 0
-27 182 -191 0
140 -143 -217 0
34 40 175 0
-124 -206 -216 0
-40 -41 -218 0
-31 -38 154 0
3 -138 244 0
-8 -118 -200 0
-95 -105 239 0
26 121 200 0
29 -151 -213 0
-146 -201 233 0
160 207 -238 0
30 -41 -224 0
-89 187 -226 0
-92 -97 -107 0
61 180 -205 0
30 -173 -229 0
32 -182 194 0
99 -162 214 0
-26 64 -86 0
-95 121 -191 0
103 -113 -139 0
33 -39 -215 0
7 28 -205 0
-97 171 197 0
135 -212 249 0
102 -119 208 0
-64 140 206 0
62 88 170 0
6 -97 150 0
11 204 240 0
102 120 -200 0
-23 25 144 0
-4 -6 -200 0
43 -107 -186 0
107 -129 -206 0
-52 -127 207 0
67 72 -146 0
-37 -87 -238 0
-72 90 99 0
-34 245 246 0
19 -149 206 0
-36 -142 148 0
22 161 240 0
-8 -104 192 0
34 152 -153 0
-36 -52 74 0
58 -77 -182 0
-23 75 -138 0
6 -75 -205 0
15 -66 159 0
34 208 -245 0
63 -151 163 0
182 -232 234 0
-149 184 209 0
-52 -196 208 0
10 69 -164 0
-71 -197 -248 0
26 127 172 0
-12 117 -193 0
-138 187 211 0
20 -174 -192 0
45 -49 -245 0
51 -60 93 0
12 118 -214 0
12 -121 150 0
-103 -132 -204 0
91 -121 232 0
-78 110 -151 0
-17 -156 -222 0
7 134 203 0
-26 -86 231 0
95 -150 164 0
-115 139 217 0
84 93 233 0
-28 -104 -151 0
-67 88 219 0
-64 -162 -197 0
147 159 202 0
-232 -240 244 0
-33 73 142 0
-26 71 -185 0
202 208 -224 0
76 87 -238 0
94 205 -209 0
42 -107 192 0
51 232 250 0
130 -151 -250 0
-15 -51 -201 0
-158 238 247 0
4 -9 126 0
3 59 196 0
52 -136 -243 0
-63 -126 -130 0
19 168 242 0
-77 -160 -176 0
6 -125 -239 0
-19 87 -166 0
-214 -216 -244 0
-43 -69 -214 0
4 -66 -80 0
-60 92 -229 0
86 -179 -237 0
-14 29 -165 0
139 -190 -193 0
-4 84 87 0
21 85 184 0
-76 -177 200 0
7 -165 -247 0
-76 97 108 0
60 105 241 0
-63 102 183 0
-77 185 -191 0
44 114 -128 0
-88 -112 142 0
-75 -150 166 0
80 -193 216 0
-57 -129 -223 0
14 60 201 0
13 75 237 0
16 109 173 0
-3 -9 138 0
3 -144 157 0
-69 76 149 0
54 101 -228 0
-10 84 85 0
48 130 145 0
46 58 -78 0
38 -186 225 0
-12 -60 192 0
23 114 151 0
15 31 52 0
202 -208 -244 0
109 135 -224 0
-50 -84 -196 0
-196 -224 237 0
-63 -110 239 0
30 155 -167 0
-71 -137 -227 0
-94 -105 -117 0
121 -131 246 0
44 78 146 0
118 161 166 0
-21 157 -209 0
-44 -81 -166 0
-20 -40 110 0
-40 176 217 0
9 123 -137 0
-94 -189 -247 0
-31 48 -168 0
158 183 227 0
-78 -215 218 0
13 -93 198 0
25 51 -250 0
69 130 228 0
-20 -80 -147 0
-47 132 -222 0
19 71 206 0
35 54 -198 0
-13 48 93 0
174 179 -223 0
-51 165 168 0
-56 81 228 0
-94 128 -219 0
-18 -82 131 0
87 -107 124 0
-166 169 220 0
-58 -84 -233 0
-79 -223 244 0
-42 76 163 0
111 -157 -238 0
-168 -185 -197 0
45 -83 173 0
92 -102 -134 0
39 124 214 0
19 -21 -190 0
84 -180 -235 0
-4 99 -142 0
-14 -186 -216 0
-61 166 -177 0
92 195 224 0
114 -214 -239 0
-45 -207 249 0
60 -148 227 0
-54 103 -131 0
-36 44 68 0
-190 207 -234 0
-118 120 -131 0
152 -202 216 0
-2 175 -209 0
98 -168 -183 0
-114 137 209 0
22 -28 185 0
-47 -102 114 0
-50 -151 -243 0
75 -90 234 0
8 199 225 0
-82 -115 218 0
-14 -100 -192 0
85 120 -130 0
-110 139 -222 0
38 90 249 0
-56 202 208 0
27 -109 179 0
-83 -96 144 0
-100 -125 -184 0
-100 -149 165 0
-26 47 -126 0
-28 -32 -138 0
-144 -174 -244 0
-83 125 177 0
52 62 -138 0
159 -195 -232 0
-8 -89 -242 0
-54 202 -231 0
99 102 -179 0
-167 231 248 0
-17 -157 211 0
76 -182 224 0
-24 90 207 0
137 -188 203 0
-84 97 112 0
41 43 249 0
114 -134 150 0
-86 156 218 0
45 92 -200 0
9 126 -152 0
-37 54 -145 0
90 -190 -229 0
8 119 136 0
177 -205 233 0
69 133 210 0
198 -206 -209 0
-27 -115 184 0
-96 -111 -166 0
95 112 248 0
38 61 -62 0
-117 158 201 0
45 209 -211 0
-72 202 219 0
-170 -178 -198 0
-13 150 -192 0
16 90 150 0
39 -112 244 0
-7 39 -74 0
-18 193 -204 0
129 140 -155 0
-140 155 -165 0
-123 -188 214 0
-18 54 152 0
28 91 227 0
1 111 -132 0
-16 -125 -157 0
11 -161 -172 0
-57 -69 -113 0
15 -69 -137 0
76 -150 -152 0
-171 -195 -248 0
-57 162 193 0
38 -127 -250 0
-80 215 217 0
36 -117 -129 0
-146 -187 234 0
4 -183 250 0
73 -119 201 0
29 -103 -145 0
-24 128 157 0
15 44 158 0
79 136 143 0
56 -59 -222 0
-35 69 158 0
68 153 -220 0
-73 -157 -248 0
18 208 216 0
-164 -211 -239 0
91 131 241 0
59 -208 242 0
83 115 -223 0
-40 177 -229 0
176 -188 -231 0
-68 199 204 0
98 -163 -177 0
7 138 -222 0
-26 -166 227 0
26 86 -133 0
-30 -46 -148 0
-103 142 -249 0
-37 223 243 0
-75 100 158 0
-70 -123 154 0
84 -201 242 0
144 -170 -188 0
-25 68 193 0
-105 181 -249 0
-34 -150 185 0
8 -97 131 0
-11 64 -173 0
11 89 157 0
-12 -150 -212 0
-24 -121 138 0
91 -161 228 0
64 -163 -198 0
-83 138 -213 0
65 169 224 0
-22 -42 221 0
36 -43 -209 0
55 181 -233 0
56 -103 203 0
-75 -164 185 0
18 19 -211 0
-143 183 212 0
111 118 139 0
-55 -63 -79 0
-69 90 236 0
-3 161 224 0
-20 81 116 0
29 173 223 0
35 -163 232 0
-59 144 213 0
17 36 -58 0
-22 148 -234 0
-3 -72 -140 0
-104 -136 224 0
-47 123 195 0
7 -133 135 0
57 -82 -102 0
129 213 226 0
-106 -140 143 0
-50 -56 78 0
69 146 239 0
23 54 -123 0
4 73 228 0
-111 151 182 0
120 -145 208 0
-17 -33 -87 0
111 -210 -220 0
-92 104 -242 0
159 222 -231 0
-7 20 -108 0
29 -161 -231 0
-24 132 -228 0
-135 151 216 0
-80 111 -176 0
-8 99 -192 0
7 -67 145 0
57 76 -190 0
-96 -103 164 0
22 126 145 0
-10 69 -72 0
-159 175 -184 0
61 -88 224 0
6 -113 132 0
-21 46 60 0
2 82 -117 0
-57 -209 240 0
-11 -155 -215 0
-70 -110 131 0
-21 121 -214 0
42 -140 -214 0
-74 -124 -192 0
74 -97 142 0
6 -68 -219 0
-42 -68 198 0
41 124 211 0
15 29 99 0
-120 141 187 0
-14 70 -136 0
-29 -113 -153 0
-100 168 240 0
-113 -186 -210 0
-182 -187 232 0
-14 -39 -220 0
-18 152 162 0
185 196 -235 0
-60 181 243 0
44 -77 -218 0
90 126 181 0
40 -64 -95 0
-70 -131 -151 0
21 88 -231 0
24 46 243 0
-47 -50 -72 0
-179 -221 250 0
102 119 -182 0
35 -155 176 0
75 -89 -198 0
-3 -150 196 0
-150 175 -209 0
32 104 -189 0
90 -196 249 0
-37 -238 241 0
-121 -146 202 0
-101 200 -226 0
44 101 -117 0
67 -101 126 0
-163 -216 -240 0
32 66 248 0
-39 120 243 0
11 21 58 0
30 -149 -169 0
38 89 -209 0
158 204 -250 0
222 -225 -242 0
132 -203 212 0
162 207 -239 0
23 26 -116 0
-79 -141 -152 0
31 -208 247 0
129 -131 -227 0
25 -111 208 0
65 -96 195 0
58 143 -241 0
-33 -92 -165 0
113 -160 231 0
-76 136 184 0
59 -189 -215 0
-1 66 -224 0
-24 124 196 0
28 104 -110 0
133 171 211 0
-70 -94 -215 0
39 146 -194 0
124 -231 237 0
215 233 -241 0
59 -165 -233 0
95 177 193 0
-87 -101 -239 0
-151 -177 -203 0
91 -158 198 0
-121 -157 226 0
28 136 153 0
-138 -198 -226 0
2 -103 160 0
-54 -151 -188 0
26 -105 235 0
80 -168 -248 0
-36 -65 202 0
-86 112 -134 0
-11 -80 -129 0
-41 -68 75 0
-67 -100 226 0
99 227 230 0
82 -239 249 0
-28 107 204 0
-62 -89 160 0
-9 22 -134 0
-7 44 -229 0
43 75 -162 0
100 -223 -245 0
13 -112 -233 0
125 148 -151 0
104 163 -204 0
-19 -206 222 0
-1 66 -200 0
-22 -47 -200 0
26 -77 79 0
66 141 210 0
103 -142 173 0
88 -98 187 0
52 154 -179 0
136 146 -185 0
5 -172 175 0
-14 -190 235 0
-24 -41 -57 0
-50 -130 153 0
-75 159 -172 0
-93 149 186 0
6 138 -170 0
44 83 189 0
-57 -100 156 0
67 97 163 0
-128 -185 -241 0
-104 200 -220 0
-72 -205 235 0
92 -149 201 0
-19 20 -67 0
-11 -79 222 0
-174 -177 -213 0
-94 109 -194 0
75 101 221 0
-87 -181 -234 0
-32 215 -224 0
29 -52 -156 0
35 45 -176 0
83 -113 -130 0
48 145 246 0
-31 34 196 0
74 96 -213 0
38 169 174 0
69 108 151 0
-42 196 -237 0
126 139 -218 0
19 53 63 0
157 -158 180 0
-193 198 -219 0
-46 -72 136 0
33 -142 -238 0
-58 -95 114 0
14 -197 -235 0
-42 -170 -185 0
-40 -52 118 0
-33 57 156 0
-59 168 -217 0
-16 127 184 0
77 -80 192 0
-84 117 195 0
-14 44 130 0
-127 -132 -238 0
-8 -166 238 0
3 133 -144 0
10 -217 250 0
-37 -38 116 0
-19 -32 -132 0
-10 54 -136 0
44 51 -245 0
-77 165 179 0
32 73 -249 0
23 -136 204 0
36 105 -185 0
-171 -239 240 0
103 -119 -229 0
-3 -55 73 0
-25 -115 204 0
77 -189 -248 0
11 55 248 0
84 -119 -154 0
17 184 247 0
-89 -106 193 0
-29 79 99 0
-112 133 150 0
-39 200 -207 0
20 154 245 0
-36 103 157 0
36 156 227 0
-70 72 153 0
3 -180 -214 0
80 -102 -183 0
-93 -194 -201 0
-48 122 -227 0
59 -178 218 0
-2 21 201 0
-34 101 -183 0
47 56 -186 0
23 32 -89 0
-138 144 -204 0
92 147 242 0
-48 91 -220 0
17 -56 -111 0
-95 -101 215 0
-49 -106 -229 0
-31 115 178 0
78 106 -245 0
131 158 -181 0
-15 29 170 0
-143 164 -181 0
-14 -37 -111 0
97 -191 232 0
131 -176 -179 0
-17 152 186 0
49 -53 181 0
-62 -135 182 0
1 61 201 0
24 141 -221 0
59 86 -93 0
-106 225 249 0
118 -173 -219 0
-77 -173 -238 0
76 124 173 0
19 54 109 0
19 -121 234 0
-74 -76 233 0
97 119 179 0
-78 185 -248 0
107 -209 -236 0
-187 217 219 0
-4 -127 -236 0
-127 230 241 0
-55 115 -177 0
16 -187 -241 0
37 96 135 0
-55 -150 -199 0
-6 -35 -122 0
94 -112 183 0
-119 -148 -172 0
-71 73 223 0
-84 115 -242 0
-40 41 -64 0
-8 -173 216 0
19 -22 -35 0
-57 -204 -237 0
3 -39 -73 0
-78 172 190 0
25 -198 -230 0
-15 -29 -238 0
-10 79 -206 0
73 -144 -161 0
-44 74 236 0
-33 -34 -249 0
121 -206 214 0
68 194 -248 0
119 -139 212 0
32 -148 224 0
-55 128 -222 0
-121 139 223 0
-33 65 -121 0
-116 133 142 0
109 -228 231 0
22 -93 117 0
-53 223 242 0
21 -85 198 0
-119 -126 -145 0
-134 164 198 0
1 45 79 0
35 -199 220 0
-22 -125 -232 0
-140 -166 -245 0
33 -123 172 0
71 -239 245 0
-40 100 -231 0
58 -171 -182 0
40 -85 240 0
1 19 220 0
-34 221 225 0
-87 -111 220 0
176 -212 248 0
-30 -91 109 0
3 170 -232 0
154 197 233 0
172 -223 232 0
-84 -180 206 0
-12 14 116 0
7 -81 160 0
-60 -66 201 0
-20 34 237 0
41 174 -197 0
1 -28 237 0
25 -70 209 0
-97 207 -212 0
36 -77 212 0
-54 -196 198 0
-8 -208 247 0
-76 -178 -225 0
47 54 123 0
111 -179 -230 0
13 -59 63 0
-11 -55 -179 0
-114 -116 -210 0
-11 53 234 0
-195 202 -227 0
2 27 -214 0
-50 -78 209 0
8 -174 -229 0
47 171 -205 0
-40 -187 -241 0
176 200 -215 0
16 22 -62 0
-36 -97 192 0
-10 -219 -246 0
-96 -180 191 0
-30 -219 -239 0
-15 -172 216 0
-82 -126 214 0
-11 -44 131 0
52 81 -190 0
65 108 -145 0
-62 180 -247 0
5 -109 211 0
-10 -37 106 0
-28 -100 -177 0
-28 -137 168 0
68 -154 -221 0
8 84 130 0
25 -81 -190 0
134 200 -247 0
134 -234 -250 0
161 -213 -237 0
-84 -157 175 0
5 35 -136 0
38 123 -132 0
-12 -20 -195 0
-93 -95 -186 0
-95 -113 122 0
-34 -180 -205 0
-110 148 -246 0
-127 -136 207 0
-38 115 228 0
-18 86 -200 0
-78 105 161 0
-123 168 -220 0
-101 125 -185 0
65 -125 136 0
53 98 -189 0
-37 121 -161 0
40 216 -218 0
-86 -165 -190 0
10 21 -112 0
75 -104 -208 0
-90 -114 222 0
-9 96 173 0
-155 188 -209 0
86 -246 -247 0
-72 76 -140 0
-15 -27 97 0
-216 229 238 0
-39 53 -81 0
57 89 -166 0
-71 -172 -204 0
94 109 -110 0
15 -84 -241 0
37 85 -232 0
-125 -128 -227 0
-21 127 140 0
24 -107 229 0
109 188 236 0
144 159 174 0
-32 -85 -166 0
-20 -106 -220 0
102 -113 -239 0
-28 -100 221 0
12 68 169 0
-2 84 226 0
108 -113 -159 0
-32 174 224 0
-35 -62 -248 0
33 74 157 0
38 151 195 0
-55 -214 -244 0
110 -121 163 0
-98 182 -213 0
28 -132 -207 0
-34 -134 -227 0
32 -225 -230 0
-94 -108 -114 0
8 -138 -216 0
27 -60 196 0
-46 178 184 0
38 118 -229 0
-122 194 232 0
-12 -75 -167 0
-3 -63 211 0
47 -51 79 0
-101 161 -205 0
102 -228 -240 0
1 -60 203 0
-73 237 -242 0
65 88 214 0
55 66 161 0
73 118 220 0
39 155 219 0
-41 -44 112 0
-115 -129 159 0
140 242 249 0
116 -126 239 0
79 -172 -240 0
5 -30 68 0
15 41 84 0
-8 -64 -67 0
23 87 -151 0
-23 184 -192 0
-50 -119 -235 0
151 158 222 0
-23 -25 61 0
-32 151 -213 0
-199 227 234 0
-55 105 184 0
21 -112 214 0
-63 -147 -237 0
31 -99 -220 0
-124 169 -230 0
-39 69 161 0
-104 -170 238 0
-34 -53 -162 0
-12 15 -145 0
128 -131 -194 0
40 -73 158 0
51 -81 88 0
35 -108 200 0
-36 -99 101 0
24 169 -188 0
-97 -122 198 0
-135 136 -194 0
101 134 -190 0
-26 -30 105 0
21 125 -241 0
-99 -157 -234 0
36 -62 105 0
49 -64 146 0
28 -232 241 0
-86 -132 -238 0
-59 90 235 0
120 -217 -233 0
-24 -119 -132 0
19 -118 120 0
-136 -201 241 0
-90 -181 -220 0
3 134 193 0
58 70 -94 0
92 95 -214 0
-89 -91 -137 0
14 -22 -118 0
-55 208 236 0
-24 -72 -107 0
125 -155 247 0
52 -124 180 0
9 -21 83 0
-9 50 227 0
17 121 -176 0
-33 -127 -177 0
3 65 -156 0
9 60 -242 0
-11 34 -86 0
-53 -79 84 0
-98 195 233 0
78 -188 210 0
20 101 249 0
-108 -218 221 0
-37 125 127 0
53 -69 -139 0
-37 -38 -81 0
-118 -156 214 0
6 56 -141 0
111 143 248 0
-60 200 220 0
42 136 141 0
-65 -77 -164 0
53 -96 197 0
