c description: Relativized pigeonhole principle formula for 10 pigeons, 9 resting places and 9 holes
c generator: CNFgen (0.9.5)
c copyright: (C) 2012-2026 Massimo Lauria <massimo.lauria@uniroma1.it>
c url: https://massimolauria.net/cnfgen
c random seed: 1
c command line: cnfgen -S 1 --output rphp_10_9_9.cnf rphp 10 9 9
c
p cnf 180 838
1 2 3 4 5 6 7 8 9 0
10 11 12 13 14 15 16 17 18 0
19 20 21 22 23 24 25 26 27 0
28 29 30 31 32 33 34 35 36 0
37 38 39 40 41 42 43 44 45 0
46 47 48 49 50 51 52 53 54 0
55 56 57 58 59 60 61 62 63 0
64 65 66 67 68 69 70 71 72 0
73 74 75 76 77 78 79 80 81 0
82 83 84 85 86 87 88 89 90 0
-1 -10 0
-1 -19 0
-1 -28 0
-1 -37 0
-1 -46 0
-1 -55 0
-1 -64 0
-1 -73 0
-1 -82 0
-10 -19 0
-10 -28 0
-10 -37 0
-10 -46 0
-10 -55 0
-10 -64 0
-10 -73 0
-10 -82 0
-19 -28 0
-19 -37 0
-19 -46 0
-19 -55 0
-19 -64 0
-19 -73 0
-19 -82 0
-28 -37 0
-28 -46 0
-28 -55 0
-28 -64 0
-28 -73 0
-28 -82 0
-37 -46 0
-37 -55 0
-37 -64 0
-37 -73 0
-37 -82 0
-46 -55 0
-46 -64 0
-46 -73 0
-46 -82 0
-55 -64 0
-55 -73 0
-55 -82 0
-64 -73 0
-64 -82 0
-73 -82 0
-2 -11 0
-2 -20 0
-2 -29 0
-2 -38 0
-2 -47 0
-2 -56 0
-2 -65 0
-2 -74 0
-2 -83 0
-11 -20 0
-11 -29 0
-11 -38 0
-11 -47 0
-11 -56 0
-11 -65 0
-11 -74 0
-11 -83 0
-20 -29 0
-20 -38 0
-20 -47 0
-20 -56 0
-20 -65 0
-20 -74 0
-20 -83 0
-29 -38 0
-29 -47 0
-29 -56 0
-29 -65 0
-29 -74 0
-29 -83 0
-38 -47 0
-38 -56 0
-38 -65 0
-38 -74 0
-38 -83 0
-47 -56 0
-47 -65 0
-47 -74 0
-47 -83 0
-56 -65 0
-56 -74 0
-56 -83 0
-65 -74 0
-65 -83 0
-74 -83 0
-3 -12 0
-3 -21 0
-3 -30 0
-3 -39 0
-3 -48 0
-3 -57 0
-3 -66 0
-3 -75 0
-3 -84 0
-12 -21 0
-12 -30 0
-12 -39 0
-12 -48 0
-12 -57 0
-12 -66 0
-12 -75 0
-12 -84 0
-21 -30 0
-21 -39 0
-21 -48 0
-21 -57 0
-21 -66 0
-21 -75 0
-21 -84 0
-30 -39 0
-30 -48 0
-30 -57 0
-30 -66 0
-30 -75 0
-30 -84 0
-39 -48 0
-39 -57 0
-39 -66 0
-39 -75 0
-39 -84 0
-48 -57 0
-48 -66 0
-48 -75 0
-48 -84 0
-57 -66 0
-57 -75 0
-57 -84 0
-66 -75 0
-66 -84 0
-75 -84 0
-4 -13 0
-4 -22 0
-4 -31 0
-4 -40 0
-4 -49 0
-4 -58 0
-4 -67 0
-4 -76 0
-4 -85 0
-13 -22 0
-13 -31 0
-13 -40 0
-13 -49 0
-13 -58 0
-13 -67 0
-13 -76 0
-13 -85 0
-22 -31 0
-22 -40 0
-22 -49 0
-22 -58 0
-22 -67 0
-22 -76 0
-22 -85 0
-31 -40 0
-31 -49 0
-31 -58 0
-31 -67 0
-31 -76 0
-31 -85 0
-40 -49 0
-40 -58 0
-40 -67 0
-40 -76 0
-40 -85 0
-49 -58 0
-49 -67 0
-49 -76 0
-49 -85 0
-58 -67 0
-58 -76 0
-58 -85 0
-67 -76 0
-67 -85 0
-76 -85 0
-5 -14 0
-5 -23 0
-5 -32 0
-5 -41 0
-5 -50 0
-5 -59 0
-5 -68 0
-5 -77 0
-5 -86 0
-14 -23 0
-14 -32 0
-14 -41 0
-14 -50 0
-14 -59 0
-14 -68 0
-14 -77 0
-14 -86 0
-23 -32 0
-23 -41 0
-23 -50 0
-23 -59 0
-23 -68 0
-23 -77 0
-23 -86 0
-32 -41 0
-32 -50 0
-32 -59 0
-32 -68 0
-32 -77 0
-32 -86 0
-41 -50 0
-41 -59 0
-41 -68 0
-41 -77 0
-41 -86 0
-50 -59 0
-50 -68 0
-50 -77 0
-50 -86 0
-59 -68 0
-59 -77 0
-59 -86 0
-68 -77 0
-68 -86 0
-77 -86 0
-6 -15 0
-6 -24 0
-6 -33 0
-6 -42 0
-6 -51 0
-6 -60 0
-6 -69 0
-6 -78 0
-6 -87 0
-15 -24 0
-15 -33 0
-15 -42 0
-15 -51 0
-15 -60 0
-15 -69 0
-15 -78 0
-15 -87 0
-24 -33 0
-24 -42 0
-24 -51 0
-24 -60 0
-24 -69 0
-24 -78 0
-24 -87 0
-33 -42 0
-33 -51 0
-33 -60 0
-33 -69 0
-33 -78 0
-33 -87 0
-42 -51 0
-42 -60 0
-42 -69 0
-42 -78 0
-42 -87 0
-51 -60 0
-51 -69 0
-51 -78 0
-51 -87 0
-60 -69 0
-60 -78 0
-60 -87 0
-69 -78 0
-69 -87 0
-78 -87 0
-7 -16 0
-7 -25 0
-7 -34 0
-7 -43 0
-7 -52 0
-7 -61 0
-7 -70 0
-7 -79 0
-7 -88 0
-16 -25 0
-16 -34 0
-16 -43 0
-16 -52 0
-16 -61 0
-16 -70 0
-16 -79 0
-16 -88 0
-25 -34 0
-25 -43 0
-25 -52 0
-25 -61 0
-25 -70 0
-25 -79 0
-25 -88 0
-34 -43 0
-34 -52 0
-34 -61 0
-34 -70 0
-34 -79 0
-34 -88 0
-43 -52 0
-43 -61 0
-43 -70 0
-43 -79 0
-43 -88 0
-52 -61 0
-52 -70 0
-52 -79 0
-52 -88 0
-61 -70 0
-61 -79 0
-61 -88 0
-70 -79 0
-70 -88 0
-79 -88 0
-8 -17 0
-8 -26 0
-8 -35 0
-8 -44 0
-8 -53 0
-8 -62 0
-8 -71 0
-8 -80 0
-8 -89 0
-17 -26 0
-17 -35 0
-17 -44 0
-17 -53 0
-17 -62 0
-17 -71 0
-17 -80 0
-17 -89 0
-26 -35 0
-26 -44 0
-26 -53 0
-26 -62 0
-26 -71 0
-26 -80 0
-26 -89 0
-35 -44 0
-35 -53 0
-35 -62 0
-35 -71 0
-35 -80 0
-35 -89 0
-44 -53 0
-44 -62 0
-44 -71 0
-44 -80 0
-44 -89 0
-53 -62 0
-53 -71 0
-53 -80 0
-53 -89 0
-62 -71 0
-62 -80 0
-62 -89 0
-71 -80 0
-71 -89 0
-80 -89 0
-9 -18 0
-9 -27 0
-9 -36 0
-9 -45 0
-9 -54 0
-9 -63 0
-9 -72 0
-9 -81 0
-9 -90 0
-18 -27 0
-18 -36 0
-18 -45 0
-18 -54 0
-18 -63 0
-18 -72 0
-18 -81 0
-18 -90 0
-27 -36 0
-27 -45 0
-27 -54 0
-27 -63 0
-27 -72 0
-27 -81 0
-27 -90 0
-36 -45 0
-36 -54 0
-36 -63 0
-36 -72 0
-36 -81 0
-36 -90 0
-45 -54 0
-45 -63 0
-45 -72 0
-45 -81 0
-45 -90 0
-54 -63 0
-54 -72 0
-54 -81 0
-54 -90 0
-63 -72 0
-63 -81 0
-63 -90 0
-72 -81 0
-72 -90 0
-81 -90 0
-1 172 0
-10 172 0
-19 172 0
-28 172 0
-37 172 0
-46 172 0
-55 172 0
-64 172 0
-73 172 0
-82 172 0
-2 173 0
-11 173 0
-20 173 0
-29 173 0
-38 173 0
-47 173 0
-56 173 0
-65 173 0
-74 173 0
-83 173 0
-3 174 0
-12 174 0
-21 174 0
-30 174 0
-39 174 0
-48 174 0
-57 174 0
-66 174 0
-75 174 0
-84 174 0
-4 175 0
-13 175 0
-22 175 0
-31 175 0
-40 175 0
-49 175 0
-58 175 0
-67 175 0
-76 175 0
-85 175 0
-5 176 0
-14 176 0
-23 176 0
-32 176 0
-41 176 0
-50 176 0
-59 176 0
-68 176 0
-77 176 0
-86 176 0
-6 177 0
-15 177 0
-24 177 0
-33 177 0
-42 177 0
-51 177 0
-60 177 0
-69 177 0
-78 177 0
-87 177 0
-7 178 0
-16 178 0
-25 178 0
-34 178 0
-43 178 0
-52 178 0
-61 178 0
-70 178 0
-79 178 0
-88 178 0
-8 179 0
-17 179 0
-26 179 0
-35 179 0
-44 179 0
-53 179 0
-62 179 0
-71 179 0
-80 179 0
-89 179 0
-9 180 0
-18 180 0
-27 180 0
-36 180 0
-45 180 0
-54 180 0
-63 180 0
-72 180 0
-81 180 0
-90 180 0
-172 91 92 93 94 95 96 97 98 99 0
-173 100 101 102 103 104 105 106 107 108 0
-174 109 110 111 112 113 114 115 116 117 0
-175 118 119 120 121 122 123 124 125 126 0
-176 127 128 129 130 131 132 133 134 135 0
-177 136 137 138 139 140 141 142 143 144 0
-178 145 146 147 148 149 150 151 152 153 0
-179 154 155 156 157 158 159 160 161 162 0
-180 163 164 165 166 167 168 169 170 171 0
-172 -173 -91 -100 0
-172 -174 -91 -109 0
-172 -175 -91 -118 0
-172 -176 -91 -127 0
-172 -177 -91 -136 0
-172 -178 -91 -145 0
-172 -179 -91 -154 0
-172 -180 -91 -163 0
-173 -174 -100 -109 0
-173 -175 -100 -118 0
-173 -176 -100 -127 0
-173 -177 -100 -136 0
-173 -178 -100 -145 0
-173 -179 -100 -154 0
-173 -180 -100 -163 0
-174 -175 -109 -118 0
-174 -176 -109 -127 0
-174 -177 -109 -136 0
-174 -178 -109 -145 0
-174 -179 -109 -154 0
-174 -180 -109 -163 0
-175 -176 -118 -127 0
-175 -177 -118 -136 0
-175 -178 -118 -145 0
-175 -179 -118 -154 0
-175 -180 -118 -163 0
-176 -177 -127 -136 0
-176 -178 -127 -145 0
-176 -179 -127 -154 0
-176 -180 -127 -163 0
-177 -178 -136 -145 0
-177 -179 -136 -154 0
-177 -180 -136 -163 0
-178 -179 -145 -154 0
-178 -180 -145 -163 0
-179 -180 -154 -163 0
-172 -173 -92 -101 0
-172 -174 -92 -110 0
-172 -175 -92 -119 0
-172 -176 -92 -128 0
-172 -177 -92 -137 0
-172 -178 -92 -146 0
-172 -179 -92 -155 0
-172 -180 -92 -164 0
-173 -174 -101 -110 0
-173 -175 -101 -119 0
-173 -176 -101 -128 0
-173 -177 -101 -137 0
-173 -178 -101 -146 0
-173 -179 -101 -155 0
-173 -180 -101 -164 0
-174 -175 -110 -119 0
-174 -176 -110 -128 0
-174 -177 -110 -137 0
-174 -178 -110 -146 0
-174 -179 -110 -155 0
-174 -180 -110 -164 0
-175 -176 -119 -128 0
-175 -177 -119 -137 0
-175 -178 -119 -146 0
-175 -179 -119 -155 0
-175 -180 -119 -164 0
-176 -177 -128 -137 0
-176 -178 -128 -146 0
-176 -179 -128 -155 0
-176 -180 -128 -164 0
-177 -178 -137 -146 0
-177 -179 -137 -155 0
-177 -180 -137 -164 0
-178 -179 -146 -155 0
-178 -180 -146 -164 0
-179 -180 -155 -164 0
-172 -173 -93 -102 0
-172 -174 -93 -111 0
-172 -175 -93 -120 0
-172 -176 -93 -129 0
-172 -177 -93 -138 0
-172 -178 -93 -147 0
-172 -179 -93 -156 0
-172 -180 -93 -165 0
-173 -174 -102 -111 0
-173 -175 -102 -120 0
-173 -176 -102 -129 0
-173 -177 -102 -138 0
-173 -178 -102 -147 0
-173 -179 -102 -156 0
-173 -180 -102 -165 0
-174 -175 -111 -120 0
-174 -176 -111 -129 0
-174 -177 -111 -138 0
-174 -178 -111 -147 0
-174 -179 -111 -156 0
-174 -180 -111 -165 0
-175 -176 -120 -129 0
-175 -177 -120 -138 0
-175 -178 -120 -147 0
-175 -179 -120 -156 0
-175 -180 -120 -165 0
-176 -177 -129 -138 0
-176 -178 -129 -147 0
-176 -179 -129 -156 0
-176 -180 -129 -165 0
-177 -178 -138 -147 0
-177 -179 -138 -156 0
-177 -180 -138 -165 0
-178 -179 -147 -156 0
-178 -180 -147 -165 0
-179 -180 -156 -165 0
-172 -173 -94 -103 0
-172 -174 -94 -112 0
-172 -175 -94 -121 0
-172 -176 -94 -130 0
-172 -177 -94 -139 0
-172 -178 -94 -148 0
-172 -179 -94 -157 0
-172 -180 -94 -166 0
-173 -174 -103 -112 0
-173 -175 -103 -121 0
-173 -176 -103 -130 0
-173 -177 -103 -139 0
-173 -178 -103 -148 0
-173 -179 -103 -157 0
-173 -180 -103 -166 0
-174 -175 -112 -121 0
-174 -176 -112 -130 0
-174 -177 -112 -139 0
-174 -178 -112 -148 0
-174 -179 -112 -157 0
-174 -180 -112 -166 0
-175 -176 -121 -130 0
-175 -177 -121 -139 0
-175 -178 -121 -148 0
-175 -179 -121 -157 0
-175 -180 -121 -166 0
-176 -177 -130 -139 0
-176 -178 -130 -148 0
-176 -179 -130 -157 0
-176 -180 -130 -166 0
-177 -178 -139 -148 0
-177 -179 -139 -157 0
-177 -180 -139 -166 0
-178 -179 -148 -157 0
-178 -180 -148 -166 0
-179 -180 -157 -166 0
-172 -173 -95 -104 0
-172 -174 -95 -113 0
-172 -175 -95 -122 0
-172 -176 -95 -131 0
-172 -177 -95 -140 0
-172 -178 -95 -149 0
-172 -179 -95 -158 0
-172 -180 -95 -167 0
-173 -174 -104 -113 0
-173 -175 -104 -122 0
-173 -176 -104 -131 0
-173 -177 -104 -140 0
-173 -178 -104 -149 0
-173 -179 -104 -158 0
-173 -180 -104 -167 0
-174 -175 -113 -122 0
-174 -176 -113 -131 0
-174 -177 -113 -140 0
-174 -178 -113 -149 0
-174 -179 -113 -158 0
-174 -180 -113 -167 0
-175 -176 -122 -131 0
-175 -177 -122 -140 0
-175 -178 -122 -149 0
-175 -179 -122 -158 0
-175 -180 -122 -167 0
-176 -177 -131 -140 0
-176 -178 -131 -149 0
-176 -179 -131 -158 0
-176 -180 -131 -167 0
-177 -178 -140 -149 0
-177 -179 -140 -158 0
-177 -180 -140 -167 0
-178 -179 -149 -158 0
-178 -180 -149 -167 0
-179 -180 -158 -167 0
-172 -173 -96 -105 0
-172 -174 -96 -114 0
-172 -175 -96 -123 0
-172 -176 -96 -132 0
-172 -177 -96 -141 0
-172 -178 -96 -150 0
-172 -179 -96 -159 0
-172 -180 -96 -168 0
-173 -174 -105 -114 0
-173 -175 -105 -123 0
-173 -176 -105 -132 0
-173 -177 -105 -141 0
-173 -178 -105 -150 0
-173 -179 -105 -159 0
-173 -180 -105 -168 0
-174 -175 -114 -123 0
-174 -176 -114 -132 0
-174 -177 -114 -141 0
-174 -178 -114 -150 0
-174 -179 -114 -159 0
-174 -180 -114 -168 0
-175 -176 -123 -132 0
-175 -177 -123 -141 0
-175 -178 -123 -150 0
-175 -179 -123 -159 0
-175 -180 -123 -168 0
-176 -177 -132 -141 0
-176 -178 -132 -150 0
-176 -179 -132 -159 0
-176 -180 -132 -168 0
-177 -178 -141 -150 0
-177 -179 -141 -159 0
-177 -180 -141 -168 0
-178 -179 -150 -159 0
-178 -180 -150 -168 0
-179 -180 -159 -168 0
-172 -173 -97 -106 0
-172 -174 -97 -115 0
-172 -175 -97 -124 0
-172 -176 -97 -133 0
-172 -177 -97 -142 0
-172 -178 -97 -151 0
-172 -179 -97 -160 0
-172 -180 -97 -169 0
-173 -174 -106 -115 0
-173 -175 -106 -124 0
-173 -176 -106 -133 0
-173 -177 -106 -142 0
-173 -178 -106 -151 0
-173 -179 -106 -160 0
-173 -180 -106 -169 0
-174 -175 -115 -124 0
-174 -176 -115 -133 0
-174 -177 -115 -142 0
-174 -178 -115 -151 0
-174 -179 -115 -160 0
-174 -180 -115 -169 0
-175 -176 -124 -133 0
-175 -177 -124 -142 0
-175 -178 -124 -151 0
-175 -179 -124 -160 0
-175 -180 -124 -169 0
-176 -177 -133 -142 0
-176 -178 -133 -151 0
-176 -179 -133 -160 0
-176 -180 -133 -169 0
-177 -178 -142 -151 0
-177 -179 -142 -160 0
-177 -180 -142 -169 0
-178 -179 -151 -160 0
-178 -180 -151 -169 0
-179 -180 -160 -169 0
-172 -173 -98 -107 0
-172 -174 -98 -116 0
-172 -175 -98 -125 0
-172 -176 -98 -134 0
-172 -177 -98 -143 0
-172 -178 -98 -152 0
-172 -179 -98 -161 0
-172 -180 -98 -170 0
-173 -174 -107 -116 0
-173 -175 -107 -125 0
-173 -176 -107 -134 0
-173 -177 -107 -143 0
-173 -178 -107 -152 0
-173 -179 -107 -161 0
-173 -180 -107 -170 0
-174 -175 -116 -125 0
-174 -176 -116 -134 0
-174 -177 -116 -143 0
-174 -178 -116 -152 0
-174 -179 -116 -161 0
-174 -180 -116 -170 0
-175 -176 -125 -134 0
-175 -177 -125 -143 0
-175 -178 -125 -152 0
-175 -179 -125 -161 0
-175 -180 -125 -170 0
-176 -177 -134 -143 0
-176 -178 -134 -152 0
-176 -179 -134 -161 0
-176 -180 -134 -170 0
-177 -178 -143 -152 0
-177 -179 -143 -161 0
-177 -180 -143 -170 0
-178 -179 -152 -161 0
-178 -180 -152 -170 0
-179 -180 -161 -170 0
-172 -173 -99 -108 0
-172 -174 -99 -117 0
-172 -175 -99 -126 0
-172 -176 -99 -135 0
-172 -177 -99 -144 0
-172 -178 -99 -153 0
-172 -179 -99 -162 0
-172 -180 -99 -171 0
-173 -174 -108 -117 0
-173 -175 -108 -126 0
-173 -176 -108 -135 0
-173 -177 -108 -144 0
-173 -178 -108 -153 0
-173 -179 -108 -162 0
-173 -180 -108 -171 0
-174 -175 -117 -126 0
-174 -176 -117 -135 0
-174 -177 -117 -144 0
-174 -178 -117 -153 0
-174 -179 -117 -162 0
-174 -180 -117 -171 0
-175 -176 -126 -135 0
-175 -177 -126 -144 0
-175 -178 -126 -153 0
-175 -179 -126 -162 0
-175 -180 -126 -171 0
-176 -177 -135 -144 0
-176 -178 -135 -153 0
-176 -179 -135 -162 0
-176 -180 -135 -171 0
-177 -178 -144 -153 0
-177 -179 -144 -162 0
-177 -180 -144 -171 0
-178 -179 -153 -162 0
-178 -180 -153 -171 0
-179 -180 -162 -171 0
