c description: Relativized pigeonhole principle formula for 10 pigeons, 9 resting places and 8 holes
c generator: CNFgen (0.9.5)
c copyright: (C) 2012-2026 Massimo Lauria <massimo.lauria@uniroma1.it>
c url: https://massimolauria.net/cnfgen
c random seed: 1
c command line: cnfgen -S 1 --output rphp_10_9_8.cnf rphp 10 9 8
c
p cnf 171 802
1 2 3 4 5 6 7 8 9 0
10 11 12 13 14 15 16 17 18 0
19 20 21 22 23 24 25 26 27 0
28 29 30 31 32 33 34 35 36 0
37 38 39 40 41 42 43 44 45 0
46 47 48 49 50 51 52 53 54 0
55 56 57 58 59 60 61 62 63 0
64 65 66 67 68 69 70 71 72 0
73 74 75 76 77 78 79 80 81 0
82 83 84 85 86 87 88 89 90 0
-1 -10 0
-1 -19 0
-1 -28 0
-1 -37 0
-1 -46 0
-1 -55 0
-1 -64 0
-1 -73 0
-1 -82 0
-10 -19 0
-10 -28 0
-10 -37 0
-10 -46 0
-10 -55 0
-10 -64 0
-10 -73 0
-10 -82 0
-19 -28 0
-19 -37 0
-19 -46 0
-19 -55 0
-19 -64 0
-19 -73 0
-19 -82 0
-28 -37 0
-28 -46 0
-28 -55 0
-28 -64 0
-28 -73 0
-28 -82 0
-37 -46 0
-37 -55 0
-37 -64 0
-37 -73 0
-37 -82 0
-46 -55 0
-46 -64 0
-46 -73 0
-46 -82 0
-55 -64 0
-55 -73 0
-55 -82 0
-64 -73 0
-64 -82 0
-73 -82 0
-2 -11 0
-2 -20 0
-2 -29 0
-2 -38 0
-2 -47 0
-2 -56 0
-2 -65 0
-2 -74 0
-2 -83 0
-11 -20 0
-11 -29 0
-11 -38 0
-11 -47 0
-11 -56 0
-11 -65 0
-11 -74 0
-11 -83 0
-20 -29 0
-20 -38 0
-20 -47 0
-20 -56 0
-20 -65 0
-20 -74 0
-20 -83 0
-29 -38 0
-29 -47 0
-29 -56 0
-29 -65 0
-29 -74 0
-29 -83 0
-38 -47 0
-38 -56 0
-38 -65 0
-38 -74 0
-38 -83 0
-47 -56 0
-47 -65 0
-47 -74 0
-47 -83 0
-56 -65 0
-56 -74 0
-56 -83 0
-65 -74 0
-65 -83 0
-74 -83 0
-3 -12 0
-3 -21 0
-3 -30 0
-3 -39 0
-3 -48 0
-3 -57 0
-3 -66 0
-3 -75 0
-3 -84 0
-12 -21 0
-12 -30 0
-12 -39 0
-12 -48 0
-12 -57 0
-12 -66 0
-12 -75 0
-12 -84 0
-21 -30 0
-21 -39 0
-21 -48 0
-21 -57 0
-21 -66 0
-21 -75 0
-21 -84 0
-30 -39 0
-30 -48 0
-30 -57 0
-30 -66 0
-30 -75 0
-30 -84 0
-39 -48 0
-39 -57 0
-39 -66 0
-39 -75 0
-39 -84 0
-48 -57 0
-48 -66 0
-48 -75 0
-48 -84 0
-57 -66 0
-57 -75 0
-57 -84 0
-66 -75 0
-66 -84 0
-75 -84 0
-4 -13 0
-4 -22 0
-4 -31 0
-4 -40 0
-4 -49 0
-4 -58 0
-4 -67 0
-4 -76 0
-4 -85 0
-13 -22 0
-13 -31 0
-13 -40 0
-13 -49 0
-13 -58 0
-13 -67 0
-13 -76 0
-13 -85 0
-22 -31 0
-22 -40 0
-22 -49 0
-22 -58 0
-22 -67 0
-22 -76 0
-22 -85 0
-31 -40 0
-31 -49 0
-31 -58 0
-31 -67 0
-31 -76 0
-31 -85 0
-40 -49 0
-40 -58 0
-40 -67 0
-40 -76 0
-40 -85 0
-49 -58 0
-49 -67 0
-49 -76 0
-49 -85 0
-58 -67 0
-58 -76 0
-58 -85 0
-67 -76 0
-67 -85 0
-76 -85 0
-5 -14 0
-5 -23 0
-5 -32 0
-5 -41 0
-5 -50 0
-5 -59 0
-5 -68 0
-5 -77 0
-5 -86 0
-14 -23 0
-14 -32 0
-14 -41 0
-14 -50 0
-14 -59 0
-14 -68 0
-14 -77 0
-14 -86 0
-23 -32 0
-23 -41 0
-23 -50 0
-23 -59 0
-23 -68 0
-23 -77 0
-23 -86 0
-32 -41 0
-32 -50 0
-32 -59 0
-32 -68 0
-32 -77 0
-32 -86 0
-41 -50 0
-41 -59 0
-41 -68 0
-41 -77 0
-41 -86 0
-50 -59 0
-50 -68 0
-50 -77 0
-50 -86 0
-59 -68 0
-59 -77 0
-59 -86 0
-68 -77 0
-68 -86 0
-77 -86 0
-6 -15 0
-6 -24 0
-6 -33 0
-6 -42 0
-6 -51 0
-6 -60 0
-6 -69 0
-6 -78 0
-6 -87 0
-15 -24 0
-15 -33 0
-15 -42 0
-15 -51 0
-15 -60 0
-15 -69 0
-15 -78 0
-15 -87 0
-24 -33 0
-24 -42 0
-24 -51 0
-24 -60 0
-24 -69 0
-24 -78 0
-24 -87 0
-33 -42 0
-33 -51 0
-33 -60 0
-33 -69 0
-33 -78 0
-33 -87 0
-42 -51 0
-42 -60 0
-42 -69 0
-42 -78 0
-42 -87 0
-51 -60 0
-51 -69 0
-51 -78 0
-51 -87 0
-60 -69 0
-60 -78 0
-60 -87 0
-69 -78 0
-69 -87 0
-78 -87 0
-7 -16 0
-7 -25 0
-7 -34 0
-7 -43 0
-7 -52 0
-7 -61 0
-7 -70 0
-7 -79 0
-7 -88 0
-16 -25 0
-16 -34 0
-16 -43 0
-16 -52 0
-16 -61 0
-16 -70 0
-16 -79 0
-16 -88 0
-25 -34 0
-25 -43 0
-25 -52 0
-25 -61 0
-25 -70 0
-25 -79 0
-25 -88 0
-34 -43 0
-34 -52 0
-34 -61 0
-34 -70 0
-34 -79 0
-34 -88 0
-43 -52 0
-43 -61 0
-43 -70 0
-43 -79 0
-43 -88 0
-52 -61 0
-52 -70 0
-52 -79 0
-52 -88 0
-61 -70 0
-61 -79 0
-61 -88 0
-70 -79 0
-70 -88 0
-79 -88 0
-8 -17 0
-8 -26 0
-8 -35 0
-8 -44 0
-8 -53 0
-8 -62 0
-8 -71 0
-8 -80 0
-8 -89 0
-17 -26 0
-17 -35 0
-17 -44 0
-17 -53 0
-17 -62 0
-17 -71 0
-17 -80 0
-17 -89 0
-26 -35 0
-26 -44 0
-26 -53 0
-26 -62 0
-26 -71 0
-26 -80 0
-26 -89 0
-35 -44 0
-35 -53 0
-35 -62 0
-35 -71 0
-35 -80 0
-35 -89 0
-44 -53 0
-44 -62 0
-44 -71 0
-44 -80 0
-44 -89 0
-53 -62 0
-53 -71 0
-53 -80 0
-53 -89 0
-62 -71 0
-62 -80 0
-62 -89 0
-71 -80 0
-71 -89 0
-80 -89 0
-9 -18 0
-9 -27 0
-9 -36 0
-9 -45 0
-9 -54 0
-9 -63 0
-9 -72 0
-9 -81 0
-9 -90 0
-18 -27 0
-18 -36 0
-18 -45 0
-18 -54 0
-18 -63 0
-18 -72 0
-18 -81 0
-18 -90 0
-27 -36 0
-27 -45 0
-27 -54 0
-27 -63 0
-27 -72 0
-27 -81 0
-27 -90 0
-36 -45 0
-36 -54 0
-36 -63 0
-36 -72 0
-36 -81 0
-36 -90 0
-45 -54 0
-45 -63 0
-45 -72 0
-45 -81 0
-45 -90 0
-54 -63 0
-54 -72 0
-54 -81 0
-54 -90 0
-63 -72 0
-63 -81 0
-63 -90 0
-72 -81 0
-72 -90 0
-81 -90 0
-1 163 0
-10 163 0
-19 163 0
-28 163 0
-37 163 0
-46 163 0
-55 163 0
-64 163 0
-73 163 0
-82 163 0
-2 164 0
-11 164 0
-20 164 0
-29 164 0
-38 164 0
-47 164 0
-56 164 0
-65 164 0
-74 164 0
-83 164 0
-3 165 0
-12 165 0
-21 165 0
-30 165 0
-39 165 0
-48 165 0
-57 165 0
-66 165 0
-75 165 0
-84 165 0
-4 166 0
-13 166 0
-22 166 0
-31 166 0
-40 166 0
-49 166 0
-58 166 0
-67 166 0
-76 166 0
-85 166 0
-5 167 0
-14 167 0
-23 167 0
-32 167 0
-41 167 0
-50 167 0
-59 167 0
-68 167 0
-77 167 0
-86 167 0
-6 168 0
-15 168 0
-24 168 0
-33 168 0
-42 168 0
-51 168 0
-60 168 0
-69 168 0
-78 168 0
-87 168 0
-7 169 0
-16 169 0
-25 169 0
-34 169 0
-43 169 0
-52 169 0
-61 169 0
-70 169 0
-79 169 0
-88 169 0
-8 170 0
-17 170 0
-26 170 0
-35 170 0
-44 170 0
-53 170 0
-62 170 0
-71 170 0
-80 170 0
-89 170 0
-9 171 0
-18 171 0
-27 171 0
-36 171 0
-45 171 0
-54 171 0
-63 171 0
-72 171 0
-81 171 0
-90 171 0
-163 91 92 93 94 95 96 97 98 0
-164 99 100 101 102 103 104 105 106 0
-165 107 108 109 110 111 112 113 114 0
-166 115 116 117 118 119 120 121 122 0
-167 123 124 125 126 127 128 129 130 0
-168 131 132 133 134 135 136 137 138 0
-169 139 140 141 142 143 144 145 146 0
-170 147 148 149 150 151 152 153 154 0
-171 155 156 157 158 159 160 161 162 0
-163 -164 -91 -99 0
-163 -165 -91 -107 0
-163 -166 -91 -115 0
-163 -167 -91 -123 0
-163 -168 -91 -131 0
-163 -169 -91 -139 0
-163 -170 -91 -147 0
-163 -171 -91 -155 0
-164 -165 -99 -107 0
-164 -166 -99 -115 0
-164 -167 -99 -123 0
-164 -168 -99 -131 0
-164 -169 -99 -139 0
-164 -170 -99 -147 0
-164 -171 -99 -155 0
-165 -166 -107 -115 0
-165 -167 -107 -123 0
-165 -168 -107 -131 0
-165 -169 -107 -139 0
-165 -170 -107 -147 0
-165 -171 -107 -155 0
-166 -167 -115 -123 0
-166 -168 -115 -131 0
-166 -169 -115 -139 0
-166 -170 -115 -147 0
-166 -171 -115 -155 0
-167 -168 -123 -131 0
-167 -169 -123 -139 0
-167 -170 -123 -147 0
-167 -171 -123 -155 0
-168 -169 -131 -139 0
-168 -170 -131 -147 0
-168 -171 -131 -155 0
-169 -170 -139 -147 0
-169 -171 -139 -155 0
-170 -171 -147 -155 0
-163 -164 -92 -100 0
-163 -165 -92 -108 0
-163 -166 -92 -116 0
-163 -167 -92 -124 0
-163 -168 -92 -132 0
-163 -169 -92 -140 0
-163 -170 -92 -148 0
-163 -171 -92 -156 0
-164 -165 -100 -108 0
-164 -166 -100 -116 0
-164 -167 -100 -124 0
-164 -168 -100 -132 0
-164 -169 -100 -140 0
-164 -170 -100 -148 0
-164 -171 -100 -156 0
-165 -166 -108 -116 0
-165 -167 -108 -124 0
-165 -168 -108 -132 0
-165 -169 -108 -140 0
-165 -170 -108 -148 0
-165 -171 -108 -156 0
-166 -167 -116 -124 0
-166 -168 -116 -132 0
-166 -169 -116 -140 0
-166 -170 -116 -148 0
-166 -171 -116 -156 0
-167 -168 -124 -132 0
-167 -169 -124 -140 0
-167 -170 -124 -148 0
-167 -171 -124 -156 0
-168 -169 -132 -140 0
-168 -170 -132 -148 0
-168 -171 -132 -156 0
-169 -170 -140 -148 0
-169 -171 -140 -156 0
-170 -171 -148 -156 0
-163 -164 -93 -101 0
-163 -165 -93 -109 0
-163 -166 -93 -117 0
-163 -167 -93 -125 0
-163 -168 -93 -133 0
-163 -169 -93 -141 0
-163 -170 -93 -149 0
-163 -171 -93 -157 0
-164 -165 -101 -109 0
-164 -166 -101 -117 0
-164 -167 -101 -125 0
-164 -168 -101 -133 0
-164 -169 -101 -141 0
-164 -170 -101 -149 0
-164 -171 -101 -157 0
-165 -166 -109 -117 0
-165 -167 -109 -125 0
-165 -168 -109 -133 0
-165 -169 -109 -141 0
-165 -170 -109 -149 0
-165 -171 -109 -157 0
-166 -167 -117 -125 0
-166 -168 -117 -133 0
-166 -169 -117 -141 0
-166 -170 -117 -149 0
-166 -171 -117 -157 0
-167 -168 -125 -133 0
-167 -169 -125 -141 0
-167 -170 -125 -149 0
-167 -171 -125 -157 0
-168 -169 -133 -141 0
-168 -170 -133 -149 0
-168 -171 -133 -157 0
-169 -170 -141 -149 0
-169 -171 -141 -157 0
-170 -171 -149 -157 0
-163 -164 -94 -102 0
-163 -165 -94 -110 0
-163 -166 -94 -118 0
-163 -167 -94 -126 0
-163 -168 -94 -134 0
-163 -169 -94 -142 0
-163 -170 -94 -150 0
-163 -171 -94 -158 0
-164 -165 -102 -110 0
-164 -166 -102 -118 0
-164 -167 -102 -126 0
-164 -168 -102 -134 0
-164 -169 -102 -142 0
-164 -170 -102 -150 0
-164 -171 -102 -158 0
-165 -166 -110 -118 0
-165 -167 -110 -126 0
-165 -168 -110 -134 0
-165 -169 -110 -142 0
-165 -170 -110 -150 0
-165 -171 -110 -158 0
-166 -167 -118 -126 0
-166 -168 -118 -134 0
-166 -169 -118 -142 0
-166 -170 -118 -150 0
-166 -171 -118 -158 0
-167 -168 -126 -134 0
-167 -169 -126 -142 0
-167 -170 -126 -150 0
-167 -171 -126 -158 0
-168 -169 -134 -142 0
-168 -170 -134 -150 0
-168 -171 -134 -158 0
-169 -170 -142 -150 0
-169 -171 -142 -158 0
-170 -171 -150 -158 0
-163 -164 -95 -103 0
-163 -165 -95 -111 0
-163 -166 -95 -119 0
-163 -167 -95 -127 0
-163 -168 -95 -135 0
-163 -169 -95 -143 0
-163 -170 -95 -151 0
-163 -171 -95 -159 0
-164 -165 -103 -111 0
-164 -166 -103 -119 0
-164 -167 -103 -127 0
-164 -168 -103 -135 0
-164 -169 -103 -143 0
-164 -170 -103 -151 0
-164 -171 -103 -159 0
-165 -166 -111 -119 0
-165 -167 -111 -127 0
-165 -168 -111 -135 0
-165 -169 -111 -143 0
-165 -170 -111 -151 0
-165 -171 -111 -159 0
-166 -167 -119 -127 0
-166 -168 -119 -135 0
-166 -169 -119 -143 0
-166 -170 -119 -151 0
-166 -171 -119 -159 0
-167 -168 -127 -135 0
-167 -169 -127 -143 0
-167 -170 -127 -151 0
-167 -171 -127 -159 0
-168 -169 -135 -143 0
-168 -170 -135 -151 0
-168 -171 -135 -159 0
-169 -170 -143 -151 0
-169 -171 -143 -159 0
-170 -171 -151 -159 0
-163 -164 -96 -104 0
-163 -165 -96 -112 0
-163 -166 -96 -120 0
-163 -167 -96 -128 0
-163 -168 -96 -136 0
-163 -169 -96 -144 0
-163 -170 -96 -152 0
-163 -171 -96 -160 0
-164 -165 -104 -112 0
-164 -166 -104 -120 0
-164 -167 -104 -128 0
-164 -168 -104 -136 0
-164 -169 -104 -144 0
-164 -170 -104 -152 0
-164 -171 -104 -160 0
-165 -166 -112 -120 0
-165 -167 -112 -128 0
-165 -168 -112 -136 0
-165 -169 -112 -144 0
-165 -170 -112 -152 0
-165 -171 -112 -160 0
-166 -167 -120 -128 0
-166 -168 -120 -136 0
-166 -169 -120 -144 0
-166 -170 -120 -152 0
-166 -171 -120 -160 0
-167 -168 -128 -136 0
-167 -169 -128 -144 0
-167 -170 -128 -152 0
-167 -171 -128 -160 0
-168 -169 -136 -144 0
-168 -170 -136 -152 0
-168 -171 -136 -160 0
-169 -170 -144 -152 0
-169 -171 -144 -160 0
-170 -171 -152 -160 0
-163 -164 -97 -105 0
-163 -165 -97 -113 0
-163 -166 -97 -121 0
-163 -167 -97 -129 0
-163 -168 -97 -137 0
-163 -169 -97 -145 0
-163 -170 -97 -153 0
-163 -171 -97 -161 0
-164 -165 -105 -113 0
-164 -166 -105 -121 0
-164 -167 -105 -129 0
-164 -168 -105 -137 0
-164 -169 -105 -145 0
-164 -170 -105 -153 0
-164 -171 -105 -161 0
-165 -166 -113 -121 0
-165 -167 -113 -129 0
-165 -168 -113 -137 0
-165 -169 -113 -145 0
-165 -170 -113 -153 0
-165 -171 -113 -161 0
-166 -167 -121 -129 0
-166 -168 -121 -137 0
-166 -169 -121 -145 0
-166 -170 -121 -153 0
-166 -171 -121 -161 0
-167 -168 -129 -137 0
-167 -169 -129 -145 0
-167 -170 -129 -153 0
-167 -171 -129 -161 0
-168 -169 -137 -145 0
-168 -170 -137 -153 0
-168 -171 -137 -161 0
-169 -170 -145 -153 0
-169 -171 -145 -161 0
-170 -171 -153 -161 0
-163 -164 -98 -106 0
-163 -165 -98 -114 0
-163 -166 -98 -122 0
-163 -167 -98 -130 0
-163 -168 -98 -138 0
-163 -169 -98 -146 0
-163 -170 -98 -154 0
-163 -171 -98 -162 0
-164 -165 -106 -114 0
-164 -166 -106 -122 0
-164 -167 -106 -130 0
-164 -168 -106 -138 0
-164 -169 -106 -146 0
-164 -170 -106 -154 0
-164 -171 -106 -162 0
-165 -166 -114 -122 0
-165 -167 -114 -130 0
-165 -168 -114 -138 0
-165 -169 -114 -146 0
-165 -170 -114 -154 0
-165 -171 -114 -162 0
-166 -167 -122 -130 0
-166 -168 -122 -138 0
-166 -169 -122 -146 0
-166 -170 -122 -154 0
-166 -171 -122 -162 0
-167 -168 -130 -138 0
-167 -169 -130 -146 0
-167 -170 -130 -154 0
-167 -171 -130 -162 0
-168 -169 -138 -146 0
-168 -170 -138 -154 0
-168 -171 -138 -162 0
-169 -170 -146 -154 0
-169 -171 -146 -162 0
-170 -171 -154 -162 0
