c description: Relativized pigeonhole principle formula for 11 pigeons, 9 resting places and 8 holes
c generator: CNFgen (0.9.5)
c copyright: (C) 2012-2026 Massimo Lauria <massimo.lauria@uniroma1.it>
c url: https://massimolauria.net/cnfgen
c random seed: 1
c command line: cnfgen -S 1 --output rphp_11_9_8.cnf rphp 11 9 8
c
p cnf 180 902
1 2 3 4 5 6 7 8 9 0
10 11 12 13 14 15 16 17 18 0
19 20 21 22 23 24 25 26 27 0
28 29 30 31 32 33 34 35 36 0
37 38 39 40 41 42 43 44 45 0
46 47 48 49 50 51 52 53 54 0
55 56 57 58 59 60 61 62 63 0
64 65 66 67 68 69 70 71 72 0
73 74 75 76 77 78 79 80 81 0
82 83 84 85 86 87 88 89 90 0
91 92 93 94 95 96 97 98 99 0
-1 -10 0
-1 -19 0
-1 -28 0
-1 -37 0
-1 -46 0
-1 -55 0
-1 -64 0
-1 -73 0
-1 -82 0
-1 -91 0
-10 -19 0
-10 -28 0
-10 -37 0
-10 -46 0
-10 -55 0
-10 -64 0
-10 -73 0
-10 -82 0
-10 -91 0
-19 -28 0
-19 -37 0
-19 -46 0
-19 -55 0
-19 -64 0
-19 -73 0
-19 -82 0
-19 -91 0
-28 -37 0
-28 -46 0
-28 -55 0
-28 -64 0
-28 -73 0
-28 -82 0
-28 -91 0
-37 -46 0
-37 -55 0
-37 -64 0
-37 -73 0
-37 -82 0
-37 -91 0
-46 -55 0
-46 -64 0
-46 -73 0
-46 -82 0
-46 -91 0
-55 -64 0
-55 -73 0
-55 -82 0
-55 -91 0
-64 -73 0
-64 -82 0
-64 -91 0
-73 -82 0
-73 -91 0
-82 -91 0
-2 -11 0
-2 -20 0
-2 -29 0
-2 -38 0
-2 -47 0
-2 -56 0
-2 -65 0
-2 -74 0
-2 -83 0
-2 -92 0
-11 -20 0
-11 -29 0
-11 -38 0
-11 -47 0
-11 -56 0
-11 -65 0
-11 -74 0
-11 -83 0
-11 -92 0
-20 -29 0
-20 -38 0
-20 -47 0
-20 -56 0
-20 -65 0
-20 -74 0
-20 -83 0
-20 -92 0
-29 -38 0
-29 -47 0
-29 -56 0
-29 -65 0
-29 -74 0
-29 -83 0
-29 -92 0
-38 -47 0
-38 -56 0
-38 -65 0
-38 -74 0
-38 -83 0
-38 -92 0
-47 -56 0
-47 -65 0
-47 -74 0
-47 -83 0
-47 -92 0
-56 -65 0
-56 -74 0
-56 -83 0
-56 -92 0
-65 -74 0
-65 -83 0
-65 -92 0
-74 -83 0
-74 -92 0
-83 -92 0
-3 -12 0
-3 -21 0
-3 -30 0
-3 -39 0
-3 -48 0
-3 -57 0
-3 -66 0
-3 -75 0
-3 -84 0
-3 -93 0
-12 -21 0
-12 -30 0
-12 -39 0
-12 -48 0
-12 -57 0
-12 -66 0
-12 -75 0
-12 -84 0
-12 -93 0
-21 -30 0
-21 -39 0
-21 -48 0
-21 -57 0
-21 -66 0
-21 -75 0
-21 -84 0
-21 -93 0
-30 -39 0
-30 -48 0
-30 -57 0
-30 -66 0
-30 -75 0
-30 -84 0
-30 -93 0
-39 -48 0
-39 -57 0
-39 -66 0
-39 -75 0
-39 -84 0
-39 -93 0
-48 -57 0
-48 -66 0
-48 -75 0
-48 -84 0
-48 -93 0
-57 -66 0
-57 -75 0
-57 -84 0
-57 -93 0
-66 -75 0
-66 -84 0
-66 -93 0
-75 -84 0
-75 -93 0
-84 -93 0
-4 -13 0
-4 -22 0
-4 -31 0
-4 -40 0
-4 -49 0
-4 -58 0
-4 -67 0
-4 -76 0
-4 -85 0
-4 -94 0
-13 -22 0
-13 -31 0
-13 -40 0
-13 -49 0
-13 -58 0
-13 -67 0
-13 -76 0
-13 -85 0
-13 -94 0
-22 -31 0
-22 -40 0
-22 -49 0
-22 -58 0
-22 -67 0
-22 -76 0
-22 -85 0
-22 -94 0
-31 -40 0
-31 -49 0
-31 -58 0
-31 -67 0
-31 -76 0
-31 -85 0
-31 -94 0
-40 -49 0
-40 -58 0
-40 -67 0
-40 -76 0
-40 -85 0
-40 -94 0
-49 -58 0
-49 -67 0
-49 -76 0
-49 -85 0
-49 -94 0
-58 -67 0
-58 -76 0
-58 -85 0
-58 -94 0
-67 -76 0
-67 -85 0
-67 -94 0
-76 -85 0
-76 -94 0
-85 -94 0
-5 -14 0
-5 -23 0
-5 -32 0
-5 -41 0
-5 -50 0
-5 -59 0
-5 -68 0
-5 -77 0
-5 -86 0
-5 -95 0
-14 -23 0
-14 -32 0
-14 -41 0
-14 -50 0
-14 -59 0
-14 -68 0
-14 -77 0
-14 -86 0
-14 -95 0
-23 -32 0
-23 -41 0
-23 -50 0
-23 -59 0
-23 -68 0
-23 -77 0
-23 -86 0
-23 -95 0
-32 -41 0
-32 -50 0
-32 -59 0
-32 -68 0
-32 -77 0
-32 -86 0
-32 -95 0
-41 -50 0
-41 -59 0
-41 -68 0
-41 -77 0
-41 -86 0
-41 -95 0
-50 -59 0
-50 -68 0
-50 -77 0
-50 -86 0
-50 -95 0
-59 -68 0
-59 -77 0
-59 -86 0
-59 -95 0
-68 -77 0
-68 -86 0
-68 -95 0
-77 -86 0
-77 -95 0
-86 -95 0
-6 -15 0
-6 -24 0
-6 -33 0
-6 -42 0
-6 -51 0
-6 -60 0
-6 -69 0
-6 -78 0
-6 -87 0
-6 -96 0
-15 -24 0
-15 -33 0
-15 -42 0
-15 -51 0
-15 -60 0
-15 -69 0
-15 -78 0
-15 -87 0
-15 -96 0
-24 -33 0
-24 -42 0
-24 -51 0
-24 -60 0
-24 -69 0
-24 -78 0
-24 -87 0
-24 -96 0
-33 -42 0
-33 -51 0
-33 -60 0
-33 -69 0
-33 -78 0
-33 -87 0
-33 -96 0
-42 -51 0
-42 -60 0
-42 -69 0
-42 -78 0
-42 -87 0
-42 -96 0
-51 -60 0
-51 -69 0
-51 -78 0
-51 -87 0
-51 -96 0
-60 -69 0
-60 -78 0
-60 -87 0
-60 -96 0
-69 -78 0
-69 -87 0
-69 -96 0
-78 -87 0
-78 -96 0
-87 -96 0
-7 -16 0
-7 -25 0
-7 -34 0
-7 -43 0
-7 -52 0
-7 -61 0
-7 -70 0
-7 -79 0
-7 -88 0
-7 -97 0
-16 -25 0
-16 -34 0
-16 -43 0
-16 -52 0
-16 -61 0
-16 -70 0
-16 -79 0
-16 -88 0
-16 -97 0
-25 -34 0
-25 -43 0
-25 -52 0
-25 -61 0
-25 -70 0
-25 -79 0
-25 -88 0
-25 -97 0
-34 -43 0
-34 -52 0
-34 -61 0
-34 -70 0
-34 -79 0
-34 -88 0
-34 -97 0
-43 -52 0
-43 -61 0
-43 -70 0
-43 -79 0
-43 -88 0
-43 -97 0
-52 -61 0
-52 -70 0
-52 -79 0
-52 -88 0
-52 -97 0
-61 -70 0
-61 -79 0
-61 -88 0
-61 -97 0
-70 -79 0
-70 -88 0
-70 -97 0
-79 -88 0
-79 -97 0
-88 -97 0
-8 -17 0
-8 -26 0
-8 -35 0
-8 -44 0
-8 -53 0
-8 -62 0
-8 -71 0
-8 -80 0
-8 -89 0
-8 -98 0
-17 -26 0
-17 -35 0
-17 -44 0
-17 -53 0
-17 -62 0
-17 -71 0
-17 -80 0
-17 -89 0
-17 -98 0
-26 -35 0
-26 -44 0
-26 -53 0
-26 -62 0
-26 -71 0
-26 -80 0
-26 -89 0
-26 -98 0
-35 -44 0
-35 -53 0
-35 -62 0
-35 -71 0
-35 -80 0
-35 -89 0
-35 -98 0
-44 -53 0
-44 -62 0
-44 -71 0
-44 -80 0
-44 -89 0
-44 -98 0
-53 -62 0
-53 -71 0
-53 -80 0
-53 -89 0
-53 -98 0
-62 -71 0
-62 -80 0
-62 -89 0
-62 -98 0
-71 -80 0
-71 -89 0
-71 -98 0
-80 -89 0
-80 -98 0
-89 -98 0
-9 -18 0
-9 -27 0
-9 -36 0
-9 -45 0
-9 -54 0
-9 -63 0
-9 -72 0
-9 -81 0
-9 -90 0
-9 -99 0
-18 -27 0
-18 -36 0
-18 -45 0
-18 -54 0
-18 -63 0
-18 -72 0
-18 -81 0
-18 -90 0
-18 -99 0
-27 -36 0
-27 -45 0
-27 -54 0
-27 -63 0
-27 -72 0
-27 -81 0
-27 -90 0
-27 -99 0
-36 -45 0
-36 -54 0
-36 -63 0
-36 -72 0
-36 -81 0
-36 -90 0
-36 -99 0
-45 -54 0
-45 -63 0
-45 -72 0
-45 -81 0
-45 -90 0
-45 -99 0
-54 -63 0
-54 -72 0
-54 -81 0
-54 -90 0
-54 -99 0
-63 -72 0
-63 -81 0
-63 -90 0
-63 -99 0
-72 -81 0
-72 -90 0
-72 -99 0
-81 -90 0
-81 -99 0
-90 -99 0
-1 172 0
-10 172 0
-19 172 0
-28 172 0
-37 172 0
-46 172 0
-55 172 0
-64 172 0
-73 172 0
-82 172 0
-91 172 0
-2 173 0
-11 173 0
-20 173 0
-29 173 0
-38 173 0
-47 173 0
-56 173 0
-65 173 0
-74 173 0
-83 173 0
-92 173 0
-3 174 0
-12 174 0
-21 174 0
-30 174 0
-39 174 0
-48 174 0
-57 174 0
-66 174 0
-75 174 0
-84 174 0
-93 174 0
-4 175 0
-13 175 0
-22 175 0
-31 175 0
-40 175 0
-49 175 0
-58 175 0
-67 175 0
-76 175 0
-85 175 0
-94 175 0
-5 176 0
-14 176 0
-23 176 0
-32 176 0
-41 176 0
-50 176 0
-59 176 0
-68 176 0
-77 176 0
-86 176 0
-95 176 0
-6 177 0
-15 177 0
-24 177 0
-33 177 0
-42 177 0
-51 177 0
-60 177 0
-69 177 0
-78 177 0
-87 177 0
-96 177 0
-7 178 0
-16 178 0
-25 178 0
-34 178 0
-43 178 0
-52 178 0
-61 178 0
-70 178 0
-79 178 0
-88 178 0
-97 178 0
-8 179 0
-17 179 0
-26 179 0
-35 179 0
-44 179 0
-53 179 0
-62 179 0
-71 179 0
-80 179 0
-89 179 0
-98 179 0
-9 180 0
-18 180 0
-27 180 0
-36 180 0
-45 180 0
-54 180 0
-63 180 0
-72 180 0
-81 180 0
-90 180 0
-99 180 0
-172 100 101 102 103 104 105 106 107 0
-173 108 109 110 111 112 113 114 115 0
-174 116 117 118 119 120 121 122 123 0
-175 124 125 126 127 128 129 130 131 0
-176 132 133 134 135 136 137 138 139 0
-177 140 141 142 143 144 145 146 147 0
-178 148 149 150 151 152 153 154 155 0
-179 156 157 158 159 160 161 162 163 0
-180 164 165 166 167 168 169 170 171 0
-172 -173 -100 -108 0
-172 -174 -100 -116 0
-172 -175 -100 -124 0
-172 -176 -100 -132 0
-172 -177 -100 -140 0
-172 -178 -100 -148 0
-172 -179 -100 -156 0
-172 -180 -100 -164 0
-173 -174 -108 -116 0
-173 -175 -108 -124 0
-173 -176 -108 -132 0
-173 -177 -108 -140 0
-173 -178 -108 -148 0
-173 -179 -108 -156 0
-173 -180 -108 -164 0
-174 -175 -116 -124 0
-174 -176 -116 -132 0
-174 -177 -116 -140 0
-174 -178 -116 -148 0
-174 -179 -116 -156 0
-174 -180 -116 -164 0
-175 -176 -124 -132 0
-175 -177 -124 -140 0
-175 -178 -124 -148 0
-175 -179 -124 -156 0
-175 -180 -124 -164 0
-176 -177 -132 -140 0
-176 -178 -132 -148 0
-176 -179 -132 -156 0
-176 -180 -132 -164 0
-177 -178 -140 -148 0
-177 -179 -140 -156 0
-177 -180 -140 -164 0
-178 -179 -148 -156 0
-178 -180 -148 -164 0
-179 -180 -156 -164 0
-172 -173 -101 -109 0
-172 -174 -101 -117 0
-172 -175 -101 -125 0
-172 -176 -101 -133 0
-172 -177 -101 -141 0
-172 -178 -101 -149 0
-172 -179 -101 -157 0
-172 -180 -101 -165 0
-173 -174 -109 -117 0
-173 -175 -109 -125 0
-173 -176 -109 -133 0
-173 -177 -109 -141 0
-173 -178 -109 -149 0
-173 -179 -109 -157 0
-173 -180 -109 -165 0
-174 -175 -117 -125 0
-174 -176 -117 -133 0
-174 -177 -117 -141 0
-174 -178 -117 -149 0
-174 -179 -117 -157 0
-174 -180 -117 -165 0
-175 -176 -125 -133 0
-175 -177 -125 -141 0
-175 -178 -125 -149 0
-175 -179 -125 -157 0
-175 -180 -125 -165 0
-176 -177 -133 -141 0
-176 -178 -133 -149 0
-176 -179 -133 -157 0
-176 -180 -133 -165 0
-177 -178 -141 -149 0
-177 -179 -141 -157 0
-177 -180 -141 -165 0
-178 -179 -149 -157 0
-178 -180 -149 -165 0
-179 -180 -157 -165 0
-172 -173 -102 -110 0
-172 -174 -102 -118 0
-172 -175 -102 -126 0
-172 -176 -102 -134 0
-172 -177 -102 -142 0
-172 -178 -102 -150 0
-172 -179 -102 -158 0
-172 -180 -102 -166 0
-173 -174 -110 -118 0
-173 -175 -110 -126 0
-173 -176 -110 -134 0
-173 -177 -110 -142 0
-173 -178 -110 -150 0
-173 -179 -110 -158 0
-173 -180 -110 -166 0
-174 -175 -118 -126 0
-174 -176 -118 -134 0
-174 -177 -118 -142 0
-174 -178 -118 -150 0
-174 -179 -118 -158 0
-174 -180 -118 -166 0
-175 -176 -126 -134 0
-175 -177 -126 -142 0
-175 -178 -126 -150 0
-175 -179 -126 -158 0
-175 -180 -126 -166 0
-176 -177 -134 -142 0
-176 -178 -134 -150 0
-176 -179 -134 -158 0
-176 -180 -134 -166 0
-177 -178 -142 -150 0
-177 -179 -142 -158 0
-177 -180 -142 -166 0
-178 -179 -150 -158 0
-178 -180 -150 -166 0
-179 -180 -158 -166 0
-172 -173 -103 -111 0
-172 -174 -103 -119 0
-172 -175 -103 -127 0
-172 -176 -103 -135 0
-172 -177 -103 -143 0
-172 -178 -103 -151 0
-172 -179 -103 -159 0
-172 -180 -103 -167 0
-173 -174 -111 -119 0
-173 -175 -111 -127 0
-173 -176 -111 -135 0
-173 -177 -111 -143 0
-173 -178 -111 -151 0
-173 -179 -111 -159 0
-173 -180 -111 -167 0
-174 -175 -119 -127 0
-174 -176 -119 -135 0
-174 -177 -119 -143 0
-174 -178 -119 -151 0
-174 -179 -119 -159 0
-174 -180 -119 -167 0
-175 -176 -127 -135 0
-175 -177 -127 -143 0
-175 -178 -127 -151 0
-175 -179 -127 -159 0
-175 -180 -127 -167 0
-176 -177 -135 -143 0
-176 -178 -135 -151 0
-176 -179 -135 -159 0
-176 -180 -135 -167 0
-177 -178 -143 -151 0
-177 -179 -143 -159 0
-177 -180 -143 -167 0
-178 -179 -151 -159 0
-178 -180 -151 -167 0
-179 -180 -159 -167 0
-172 -173 -104 -112 0
-172 -174 -104 -120 0
-172 -175 -104 -128 0
-172 -176 -104 -136 0
-172 -177 -104 -144 0
-172 -178 -104 -152 0
-172 -179 -104 -160 0
-172 -180 -104 -168 0
-173 -174 -112 -120 0
-173 -175 -112 -128 0
-173 -176 -112 -136 0
-173 -177 -112 -144 0
-173 -178 -112 -152 0
-173 -179 -112 -160 0
-173 -180 -112 -168 0
-174 -175 -120 -128 0
-174 -176 -120 -136 0
-174 -177 -120 -144 0
-174 -178 -120 -152 0
-174 -179 -120 -160 0
-174 -180 -120 -168 0
-175 -176 -128 -136 0
-175 -177 -128 -144 0
-175 -178 -128 -152 0
-175 -179 -128 -160 0
-175 -180 -128 -168 0
-176 -177 -136 -144 0
-176 -178 -136 -152 0
-176 -179 -136 -160 0
-176 -180 -136 -168 0
-177 -178 -144 -152 0
-177 -179 -144 -160 0
-177 -180 -144 -168 0
-178 -179 -152 -160 0
-178 -180 -152 -168 0
-179 -180 -160 -168 0
-172 -173 -105 -113 0
-172 -174 -105 -121 0
-172 -175 -105 -129 0
-172 -176 -105 -137 0
-172 -177 -105 -145 0
-172 -178 -105 -153 0
-172 -179 -105 -161 0
-172 -180 -105 -169 0
-173 -174 -113 -121 0
-173 -175 -113 -129 0
-173 -176 -113 -137 0
-173 -177 -113 -145 0
-173 -178 -113 -153 0
-173 -179 -113 -161 0
-173 -180 -113 -169 0
-174 -175 -121 -129 0
-174 -176 -121 -137 0
-174 -177 -121 -145 0
-174 -178 -121 -153 0
-174 -179 -121 -161 0
-174 -180 -121 -169 0
-175 -176 -129 -137 0
-175 -177 -129 -145 0
-175 -178 -129 -153 0
-175 -179 -129 -161 0
-175 -180 -129 -169 0
-176 -177 -137 -145 0
-176 -178 -137 -153 0
-176 -179 -137 -161 0
-176 -180 -137 -169 0
-177 -178 -145 -153 0
-177 -179 -145 -161 0
-177 -180 -145 -169 0
-178 -179 -153 -161 0
-178 -180 -153 -169 0
-179 -180 -161 -169 0
-172 -173 -106 -114 0
-172 -174 -106 -122 0
-172 -175 -106 -130 0
-172 -176 -106 -138 0
-172 -177 -106 -146 0
-172 -178 -106 -154 0
-172 -179 -106 -162 0
-172 -180 -106 -170 0
-173 -174 -114 -122 0
-173 -175 -114 -130 0
-173 -176 -114 -138 0
-173 -177 -114 -146 0
-173 -178 -114 -154 0
-173 -179 -114 -162 0
-173 -180 -114 -170 0
-174 -175 -122 -130 0
-174 -176 -122 -138 0
-174 -177 -122 -146 0
-174 -178 -122 -154 0
-174 -179 -122 -162 0
-174 -180 -122 -170 0
-175 -176 -130 -138 0
-175 -177 -130 -146 0
-175 -178 -130 -154 0
-175 -179 -130 -162 0
-175 -180 -130 -170 0
-176 -177 -138 -146 0
-176 -178 -138 -154 0
-176 -179 -138 -162 0
-176 -180 -138 -170 0
-177 -178 -146 -154 0
-177 -179 -146 -162 0
-177 -180 -146 -170 0
-178 -179 -154 -162 0
-178 -180 -154 -170 0
-179 -180 -162 -170 0
-172 -173 -107 -115 0
-172 -174 -107 -123 0
-172 -175 -107 -131 0
-172 -176 -107 -139 0
-172 -177 -107 -147 0
-172 -178 -107 -155 0
-172 -179 -107 -163 0
-172 -180 -107 -171 0
-173 -174 -115 -123 0
-173 -175 -115 -131 0
-173 -176 -115 -139 0
-173 -177 -115 -147 0
-173 -178 -115 -155 0
-173 -179 -115 -163 0
-173 -180 -115 -171 0
-174 -175 -123 -131 0
-174 -176 -123 -139 0
-174 -177 -123 -147 0
-174 -178 -123 -155 0
-174 -179 -123 -163 0
-174 -180 -123 -171 0
-175 -176 -131 -139 0
-175 -177 -131 -147 0
-175 -178 -131 -155 0
-175 -179 -131 -163 0
-175 -180 -131 -171 0
-176 -177 -139 -147 0
-176 -178 -139 -155 0
-176 -179 -139 -163 0
-176 -180 -139 -171 0
-177 -178 -147 -155 0
-177 -179 -147 -163 0
-177 -180 -147 -171 0
-178 -179 -155 -163 0
-178 -180 -155 -171 0
-179 -180 -163 -171 0
