c description: Stone formula of Complete binary tree of height 11 with 3 stones
c generator: CNFgen (0.9.5)
c copyright: (C) 2012-2026 Massimo Lauria <massimo.lauria@uniroma1.it>
c url: https://massimolauria.net/cnfgen
c random seed: 1
c command line: cnfgen -S 1 --output stone_3_tree11.cnf stone 3 tree 11
c
p cnf 12288 34806
4 5 6 0
7 8 9 0
10 11 12 0
13 14 15 0
16 17 18 0
19 20 21 0
22 23 24 0
25 26 27 0
28 29 30 0
31 32 33 0
34 35 36 0
37 38 39 0
40 41 42 0
43 44 45 0
46 47 48 0
49 50 51 0
52 53 54 0
55 56 57 0
58 59 60 0
61 62 63 0
64 65 66 0
67 68 69 0
70 71 72 0
73 74 75 0
76 77 78 0
79 80 81 0
82 83 84 0
85 86 87 0
88 89 90 0
91 92 93 0
94 95 96 0
97 98 99 0
100 101 102 0
103 104 105 0
106 107 108 0
109 110 111 0
112 113 114 0
115 116 117 0
118 119 120 0
121 122 123 0
124 125 126 0
127 128 129 0
130 131 132 0
133 134 135 0
136 137 138 0
139 140 141 0
142 143 144 0
145 146 147 0
148 149 150 0
151 152 153 0
154 155 156 0
157 158 159 0
160 161 162 0
163 164 165 0
166 167 168 0
169 170 171 0
172 173 174 0
175 176 177 0
178 179 180 0
181 182 183 0
184 185 186 0
187 188 189 0
190 191 192 0
193 194 195 0
196 197 198 0
199 200 201 0
202 203 204 0
205 206 207 0
208 209 210 0
211 212 213 0
214 215 216 0
217 218 219 0
220 221 222 0
223 224 225 0
226 227 228 0
229 230 231 0
232 233 234 0
235 236 237 0
238 239 240 0
241 242 243 0
244 245 246 0
247 248 249 0
250 251 252 0
253 254 255 0
256 257 258 0
259 260 261 0
262 263 264 0
265 266 267 0
268 269 270 0
271 272 273 0
274 275 276 0
277 278 279 0
280 281 282 0
283 284 285 0
286 287 288 0
289 290 291 0
292 293 294 0
295 296 297 0
298 299 300 0
301 302 303 0
304 305 306 0
307 308 309 0
310 311 312 0
313 314 315 0
316 317 318 0
319 320 321 0
322 323 324 0
325 326 327 0
328 329 330 0
331 332 333 0
334 335 336 0
337 338 339 0
340 341 342 0
343 344 345 0
346 347 348 0
349 350 351 0
352 353 354 0
355 356 357 0
358 359 360 0
361 362 363 0
364 365 366 0
367 368 369 0
370 371 372 0
373 374 375 0
376 377 378 0
379 380 381 0
382 383 384 0
385 386 387 0
388 389 390 0
391 392 393 0
394 395 396 0
397 398 399 0
400 401 402 0
403 404 405 0
406 407 408 0
409 410 411 0
412 413 414 0
415 416 417 0
418 419 420 0
421 422 423 0
424 425 426 0
427 428 429 0
430 431 432 0
433 434 435 0
436 437 438 0
439 440 441 0
442 443 444 0
445 446 447 0
448 449 450 0
451 452 453 0
454 455 456 0
457 458 459 0
460 461 462 0
463 464 465 0
466 467 468 0
469 470 471 0
472 473 474 0
475 476 477 0
478 479 480 0
481 482 483 0
484 485 486 0
487 488 489 0
490 491 492 0
493 494 495 0
496 497 498 0
499 500 501 0
502 503 504 0
505 506 507 0
508 509 510 0
511 512 513 0
514 515 516 0
517 518 519 0
520 521 522 0
523 524 525 0
526 527 528 0
529 530 531 0
532 533 534 0
535 536 537 0
538 539 540 0
541 542 543 0
544 545 546 0
547 548 549 0
550 551 552 0
553 554 555 0
556 557 558 0
559 560 561 0
562 563 564 0
565 566 567 0
568 569 570 0
571 572 573 0
574 575 576 0
577 578 579 0
580 581 582 0
583 584 585 0
586 587 588 0
589 590 591 0
592 593 594 0
595 596 597 0
598 599 600 0
601 602 603 0
604 605 606 0
607 608 609 0
610 611 612 0
613 614 615 0
616 617 618 0
619 620 621 0
622 623 624 0
625 626 627 0
628 629 630 0
631 632 633 0
634 635 636 0
637 638 639 0
640 641 642 0
643 644 645 0
646 647 648 0
649 650 651 0
652 653 654 0
655 656 657 0
658 659 660 0
661 662 663 0
664 665 666 0
667 668 669 0
670 671 672 0
673 674 675 0
676 677 678 0
679 680 681 0
682 683 684 0
685 686 687 0
688 689 690 0
691 692 693 0
694 695 696 0
697 698 699 0
700 701 702 0
703 704 705 0
706 707 708 0
709 710 711 0
712 713 714 0
715 716 717 0
718 719 720 0
721 722 723 0
724 725 726 0
727 728 729 0
730 731 732 0
733 734 735 0
736 737 738 0
739 740 741 0
742 743 744 0
745 746 747 0
748 749 750 0
751 752 753 0
754 755 756 0
757 758 759 0
760 761 762 0
763 764 765 0
766 767 768 0
769 770 771 0
772 773 774 0
775 776 777 0
778 779 780 0
781 782 783 0
784 785 786 0
787 788 789 0
790 791 792 0
793 794 795 0
796 797 798 0
799 800 801 0
802 803 804 0
805 806 807 0
808 809 810 0
811 812 813 0
814 815 816 0
817 818 819 0
820 821 822 0
823 824 825 0
826 827 828 0
829 830 831 0
832 833 834 0
835 836 837 0
838 839 840 0
841 842 843 0
844 845 846 0
847 848 849 0
850 851 852 0
853 854 855 0
856 857 858 0
859 860 861 0
862 863 864 0
865 866 867 0
868 869 870 0
871 872 873 0
874 875 876 0
877 878 879 0
880 881 882 0
883 884 885 0
886 887 888 0
889 890 891 0
892 893 894 0
895 896 897 0
898 899 900 0
901 902 903 0
904 905 906 0
907 908 909 0
910 911 912 0
913 914 915 0
916 917 918 0
919 920 921 0
922 923 924 0
925 926 927 0
928 929 930 0
931 932 933 0
934 935 936 0
937 938 939 0
940 941 942 0
943 944 945 0
946 947 948 0
949 950 951 0
952 953 954 0
955 956 957 0
958 959 960 0
961 962 963 0
964 965 966 0
967 968 969 0
970 971 972 0
973 974 975 0
976 977 978 0
979 980 981 0
982 983 984 0
985 986 987 0
988 989 990 0
991 992 993 0
994 995 996 0
997 998 999 0
1000 1001 1002 0
1003 1004 1005 0
1006 1007 1008 0
1009 1010 1011 0
1012 1013 1014 0
1015 1016 1017 0
1018 1019 1020 0
1021 1022 1023 0
1024 1025 1026 0
1027 1028 1029 0
1030 1031 1032 0
1033 1034 1035 0
1036 1037 1038 0
1039 1040 1041 0
1042 1043 1044 0
1045 1046 1047 0
1048 1049 1050 0
1051 1052 1053 0
1054 1055 1056 0
1057 1058 1059 0
1060 1061 1062 0
1063 1064 1065 0
1066 1067 1068 0
1069 1070 1071 0
1072 1073 1074 0
1075 1076 1077 0
1078 1079 1080 0
1081 1082 1083 0
1084 1085 1086 0
1087 1088 1089 0
1090 1091 1092 0
1093 1094 1095 0
1096 1097 1098 0
1099 1100 1101 0
1102 1103 1104 0
1105 1106 1107 0
1108 1109 1110 0
1111 1112 1113 0
1114 1115 1116 0
1117 1118 1119 0
1120 1121 1122 0
1123 1124 1125 0
1126 1127 1128 0
1129 1130 1131 0
1132 1133 1134 0
1135 1136 1137 0
1138 1139 1140 0
1141 1142 1143 0
1144 1145 1146 0
1147 1148 1149 0
1150 1151 1152 0
1153 1154 1155 0
1156 1157 1158 0
1159 1160 1161 0
1162 1163 1164 0
1165 1166 1167 0
1168 1169 1170 0
1171 1172 1173 0
1174 1175 1176 0
1177 1178 1179 0
1180 1181 1182 0
1183 1184 1185 0
1186 1187 1188 0
1189 1190 1191 0
1192 1193 1194 0
1195 1196 1197 0
1198 1199 1200 0
1201 1202 1203 0
1204 1205 1206 0
1207 1208 1209 0
1210 1211 1212 0
1213 1214 1215 0
1216 1217 1218 0
1219 1220 1221 0
1222 1223 1224 0
1225 1226 1227 0
1228 1229 1230 0
1231 1232 1233 0
1234 1235 1236 0
1237 1238 1239 0
1240 1241 1242 0
1243 1244 1245 0
1246 1247 1248 0
1249 1250 1251 0
1252 1253 1254 0
1255 1256 1257 0
1258 1259 1260 0
1261 1262 1263 0
1264 1265 1266 0
1267 1268 1269 0
1270 1271 1272 0
1273 1274 1275 0
1276 1277 1278 0
1279 1280 1281 0
1282 1283 1284 0
1285 1286 1287 0
1288 1289 1290 0
1291 1292 1293 0
1294 1295 1296 0
1297 1298 1299 0
1300 1301 1302 0
1303 1304 1305 0
1306 1307 1308 0
1309 1310 1311 0
1312 1313 1314 0
1315 1316 1317 0
1318 1319 1320 0
1321 1322 1323 0
1324 1325 1326 0
1327 1328 1329 0
1330 1331 1332 0
1333 1334 1335 0
1336 1337 1338 0
1339 1340 1341 0
1342 1343 1344 0
1345 1346 1347 0
1348 1349 1350 0
1351 1352 1353 0
1354 1355 1356 0
1357 1358 1359 0
1360 1361 1362 0
1363 1364 1365 0
1366 1367 1368 0
1369 1370 1371 0
1372 1373 1374 0
1375 1376 1377 0
1378 1379 1380 0
1381 1382 1383 0
1384 1385 1386 0
1387 1388 1389 0
1390 1391 1392 0
1393 1394 1395 0
1396 1397 1398 0
1399 1400 1401 0
1402 1403 1404 0
1405 1406 1407 0
1408 1409 1410 0
1411 1412 1413 0
1414 1415 1416 0
1417 1418 1419 0
1420 1421 1422 0
1423 1424 1425 0
1426 1427 1428 0
1429 1430 1431 0
1432 1433 1434 0
1435 1436 1437 0
1438 1439 1440 0
1441 1442 1443 0
1444 1445 1446 0
1447 1448 1449 0
1450 1451 1452 0
1453 1454 1455 0
1456 1457 1458 0
1459 1460 1461 0
1462 1463 1464 0
1465 1466 1467 0
1468 1469 1470 0
1471 1472 1473 0
1474 1475 1476 0
1477 1478 1479 0
1480 1481 1482 0
1483 1484 1485 0
1486 1487 1488 0
1489 1490 1491 0
1492 1493 1494 0
1495 1496 1497 0
1498 1499 1500 0
1501 1502 1503 0
1504 1505 1506 0
1507 1508 1509 0
1510 1511 1512 0
1513 1514 1515 0
1516 1517 1518 0
1519 1520 1521 0
1522 1523 1524 0
1525 1526 1527 0
1528 1529 1530 0
1531 1532 1533 0
1534 1535 1536 0
1537 1538 1539 0
1540 1541 1542 0
1543 1544 1545 0
1546 1547 1548 0
1549 1550 1551 0
1552 1553 1554 0
1555 1556 1557 0
1558 1559 1560 0
1561 1562 1563 0
1564 1565 1566 0
1567 1568 1569 0
1570 1571 1572 0
1573 1574 1575 0
1576 1577 1578 0
1579 1580 1581 0
1582 1583 1584 0
1585 1586 1587 0
1588 1589 1590 0
1591 1592 1593 0
1594 1595 1596 0
1597 1598 1599 0
1600 1601 1602 0
1603 1604 1605 0
1606 1607 1608 0
1609 1610 1611 0
1612 1613 1614 0
1615 1616 1617 0
1618 1619 1620 0
1621 1622 1623 0
1624 1625 1626 0
1627 1628 1629 0
1630 1631 1632 0
1633 1634 1635 0
1636 1637 1638 0
1639 1640 1641 0
1642 1643 1644 0
1645 1646 1647 0
1648 1649 1650 0
1651 1652 1653 0
1654 1655 1656 0
1657 1658 1659 0
1660 1661 1662 0
1663 1664 1665 0
1666 1667 1668 0
1669 1670 1671 0
1672 1673 1674 0
1675 1676 1677 0
1678 1679 1680 0
1681 1682 1683 0
1684 1685 1686 0
1687 1688 1689 0
1690 1691 1692 0
1693 1694 1695 0
1696 1697 1698 0
1699 1700 1701 0
1702 1703 1704 0
1705 1706 1707 0
1708 1709 1710 0
1711 1712 1713 0
1714 1715 1716 0
1717 1718 1719 0
1720 1721 1722 0
1723 1724 1725 0
1726 1727 1728 0
1729 1730 1731 0
1732 1733 1734 0
1735 1736 1737 0
1738 1739 1740 0
1741 1742 1743 0
1744 1745 1746 0
1747 1748 1749 0
1750 1751 1752 0
1753 1754 1755 0
1756 1757 1758 0
1759 1760 1761 0
1762 1763 1764 0
1765 1766 1767 0
1768 1769 1770 0
1771 1772 1773 0
1774 1775 1776 0
1777 1778 1779 0
1780 1781 1782 0
1783 1784 1785 0
1786 1787 1788 0
1789 1790 1791 0
1792 1793 1794 0
1795 1796 1797 0
1798 1799 1800 0
1801 1802 1803 0
1804 1805 1806 0
1807 1808 1809 0
1810 1811 1812 0
1813 1814 1815 0
1816 1817 1818 0
1819 1820 1821 0
1822 1823 1824 0
1825 1826 1827 0
1828 1829 1830 0
1831 1832 1833 0
1834 1835 1836 0
1837 1838 1839 0
1840 1841 1842 0
1843 1844 1845 0
1846 1847 1848 0
1849 1850 1851 0
1852 1853 1854 0
1855 1856 1857 0
1858 1859 1860 0
1861 1862 1863 0
1864 1865 1866 0
1867 1868 1869 0
1870 1871 1872 0
1873 1874 1875 0
1876 1877 1878 0
1879 1880 1881 0
1882 1883 1884 0
1885 1886 1887 0
1888 1889 1890 0
1891 1892 1893 0
1894 1895 1896 0
1897 1898 1899 0
1900 1901 1902 0
1903 1904 1905 0
1906 1907 1908 0
1909 1910 1911 0
1912 1913 1914 0
1915 1916 1917 0
1918 1919 1920 0
1921 1922 1923 0
1924 1925 1926 0
1927 1928 1929 0
1930 1931 1932 0
1933 1934 1935 0
1936 1937 1938 0
1939 1940 1941 0
1942 1943 1944 0
1945 1946 1947 0
1948 1949 1950 0
1951 1952 1953 0
1954 1955 1956 0
1957 1958 1959 0
1960 1961 1962 0
1963 1964 1965 0
1966 1967 1968 0
1969 1970 1971 0
1972 1973 1974 0
1975 1976 1977 0
1978 1979 1980 0
1981 1982 1983 0
1984 1985 1986 0
1987 1988 1989 0
1990 1991 1992 0
1993 1994 1995 0
1996 1997 1998 0
1999 2000 2001 0
2002 2003 2004 0
2005 2006 2007 0
2008 2009 2010 0
2011 2012 2013 0
2014 2015 2016 0
2017 2018 2019 0
2020 2021 2022 0
2023 2024 2025 0
2026 2027 2028 0
2029 2030 2031 0
2032 2033 2034 0
2035 2036 2037 0
2038 2039 2040 0
2041 2042 2043 0
2044 2045 2046 0
2047 2048 2049 0
2050 2051 2052 0
2053 2054 2055 0
2056 2057 2058 0
2059 2060 2061 0
2062 2063 2064 0
2065 2066 2067 0
2068 2069 2070 0
2071 2072 2073 0
2074 2075 2076 0
2077 2078 2079 0
2080 2081 2082 0
2083 2084 2085 0
2086 2087 2088 0
2089 2090 2091 0
2092 2093 2094 0
2095 2096 2097 0
2098 2099 2100 0
2101 2102 2103 0
2104 2105 2106 0
2107 2108 2109 0
2110 2111 2112 0
2113 2114 2115 0
2116 2117 2118 0
2119 2120 2121 0
2122 2123 2124 0
2125 2126 2127 0
2128 2129 2130 0
2131 2132 2133 0
2134 2135 2136 0
2137 2138 2139 0
2140 2141 2142 0
2143 2144 2145 0
2146 2147 2148 0
2149 2150 2151 0
2152 2153 2154 0
2155 2156 2157 0
2158 2159 2160 0
2161 2162 2163 0
2164 2165 2166 0
2167 2168 2169 0
2170 2171 2172 0
2173 2174 2175 0
2176 2177 2178 0
2179 2180 2181 0
2182 2183 2184 0
2185 2186 2187 0
2188 2189 2190 0
2191 2192 2193 0
2194 2195 2196 0
2197 2198 2199 0
2200 2201 2202 0
2203 2204 2205 0
2206 2207 2208 0
2209 2210 2211 0
2212 2213 2214 0
2215 2216 2217 0
2218 2219 2220 0
2221 2222 2223 0
2224 2225 2226 0
2227 2228 2229 0
2230 2231 2232 0
2233 2234 2235 0
2236 2237 2238 0
2239 2240 2241 0
2242 2243 2244 0
2245 2246 2247 0
2248 2249 2250 0
2251 2252 2253 0
2254 2255 2256 0
2257 2258 2259 0
2260 2261 2262 0
2263 2264 2265 0
2266 2267 2268 0
2269 2270 2271 0
2272 2273 2274 0
2275 2276 2277 0
2278 2279 2280 0
2281 2282 2283 0
2284 2285 2286 0
2287 2288 2289 0
2290 2291 2292 0
2293 2294 2295 0
2296 2297 2298 0
2299 2300 2301 0
2302 2303 2304 0
2305 2306 2307 0
2308 2309 2310 0
2311 2312 2313 0
2314 2315 2316 0
2317 2318 2319 0
2320 2321 2322 0
2323 2324 2325 0
2326 2327 2328 0
2329 2330 2331 0
2332 2333 2334 0
2335 2336 2337 0
2338 2339 2340 0
2341 2342 2343 0
2344 2345 2346 0
2347 2348 2349 0
2350 2351 2352 0
2353 2354 2355 0
2356 2357 2358 0
2359 2360 2361 0
2362 2363 2364 0
2365 2366 2367 0
2368 2369 2370 0
2371 2372 2373 0
2374 2375 2376 0
2377 2378 2379 0
2380 2381 2382 0
2383 2384 2385 0
2386 2387 2388 0
2389 2390 2391 0
2392 2393 2394 0
2395 2396 2397 0
2398 2399 2400 0
2401 2402 2403 0
2404 2405 2406 0
2407 2408 2409 0
2410 2411 2412 0
2413 2414 2415 0
2416 2417 2418 0
2419 2420 2421 0
2422 2423 2424 0
2425 2426 2427 0
2428 2429 2430 0
2431 2432 2433 0
2434 2435 2436 0
2437 2438 2439 0
2440 2441 2442 0
2443 2444 2445 0
2446 2447 2448 0
2449 2450 2451 0
2452 2453 2454 0
2455 2456 2457 0
2458 2459 2460 0
2461 2462 2463 0
2464 2465 2466 0
2467 2468 2469 0
2470 2471 2472 0
2473 2474 2475 0
2476 2477 2478 0
2479 2480 2481 0
2482 2483 2484 0
2485 2486 2487 0
2488 2489 2490 0
2491 2492 2493 0
2494 2495 2496 0
2497 2498 2499 0
2500 2501 2502 0
2503 2504 2505 0
2506 2507 2508 0
2509 2510 2511 0
2512 2513 2514 0
2515 2516 2517 0
2518 2519 2520 0
2521 2522 2523 0
2524 2525 2526 0
2527 2528 2529 0
2530 2531 2532 0
2533 2534 2535 0
2536 2537 2538 0
2539 2540 2541 0
2542 2543 2544 0
2545 2546 2547 0
2548 2549 2550 0
2551 2552 2553 0
2554 2555 2556 0
2557 2558 2559 0
2560 2561 2562 0
2563 2564 2565 0
2566 2567 2568 0
2569 2570 2571 0
2572 2573 2574 0
2575 2576 2577 0
2578 2579 2580 0
2581 2582 2583 0
2584 2585 2586 0
2587 2588 2589 0
2590 2591 2592 0
2593 2594 2595 0
2596 2597 2598 0
2599 2600 2601 0
2602 2603 2604 0
2605 2606 2607 0
2608 2609 2610 0
2611 2612 2613 0
2614 2615 2616 0
2617 2618 2619 0
2620 2621 2622 0
2623 2624 2625 0
2626 2627 2628 0
2629 2630 2631 0
2632 2633 2634 0
2635 2636 2637 0
2638 2639 2640 0
2641 2642 2643 0
2644 2645 2646 0
2647 2648 2649 0
2650 2651 2652 0
2653 2654 2655 0
2656 2657 2658 0
2659 2660 2661 0
2662 2663 2664 0
2665 2666 2667 0
2668 2669 2670 0
2671 2672 2673 0
2674 2675 2676 0
2677 2678 2679 0
2680 2681 2682 0
2683 2684 2685 0
2686 2687 2688 0
2689 2690 2691 0
2692 2693 2694 0
2695 2696 2697 0
2698 2699 2700 0
2701 2702 2703 0
2704 2705 2706 0
2707 2708 2709 0
2710 2711 2712 0
2713 2714 2715 0
2716 2717 2718 0
2719 2720 2721 0
2722 2723 2724 0
2725 2726 2727 0
2728 2729 2730 0
2731 2732 2733 0
2734 2735 2736 0
2737 2738 2739 0
2740 2741 2742 0
2743 2744 2745 0
2746 2747 2748 0
2749 2750 2751 0
2752 2753 2754 0
2755 2756 2757 0
2758 2759 2760 0
2761 2762 2763 0
2764 2765 2766 0
2767 2768 2769 0
2770 2771 2772 0
2773 2774 2775 0
2776 2777 2778 0
2779 2780 2781 0
2782 2783 2784 0
2785 2786 2787 0
2788 2789 2790 0
2791 2792 2793 0
2794 2795 2796 0
2797 2798 2799 0
2800 2801 2802 0
2803 2804 2805 0
2806 2807 2808 0
2809 2810 2811 0
2812 2813 2814 0
2815 2816 2817 0
2818 2819 2820 0
2821 2822 2823 0
2824 2825 2826 0
2827 2828 2829 0
2830 2831 2832 0
2833 2834 2835 0
2836 2837 2838 0
2839 2840 2841 0
2842 2843 2844 0
2845 2846 2847 0
2848 2849 2850 0
2851 2852 2853 0
2854 2855 2856 0
2857 2858 2859 0
2860 2861 2862 0
2863 2864 2865 0
2866 2867 2868 0
2869 2870 2871 0
2872 2873 2874 0
2875 2876 2877 0
2878 2879 2880 0
2881 2882 2883 0
2884 2885 2886 0
2887 2888 2889 0
2890 2891 2892 0
2893 2894 2895 0
2896 2897 2898 0
2899 2900 2901 0
2902 2903 2904 0
2905 2906 2907 0
2908 2909 2910 0
2911 2912 2913 0
2914 2915 2916 0
2917 2918 2919 0
2920 2921 2922 0
2923 2924 2925 0
2926 2927 2928 0
2929 2930 2931 0
2932 2933 2934 0
2935 2936 2937 0
2938 2939 2940 0
2941 2942 2943 0
2944 2945 2946 0
2947 2948 2949 0
2950 2951 2952 0
2953 2954 2955 0
2956 2957 2958 0
2959 2960 2961 0
2962 2963 2964 0
2965 2966 2967 0
2968 2969 2970 0
2971 2972 2973 0
2974 2975 2976 0
2977 2978 2979 0
2980 2981 2982 0
2983 2984 2985 0
2986 2987 2988 0
2989 2990 2991 0
2992 2993 2994 0
2995 2996 2997 0
2998 2999 3000 0
3001 3002 3003 0
3004 3005 3006 0
3007 3008 3009 0
3010 3011 3012 0
3013 3014 3015 0
3016 3017 3018 0
3019 3020 3021 0
3022 3023 3024 0
3025 3026 3027 0
3028 3029 3030 0
3031 3032 3033 0
3034 3035 3036 0
3037 3038 3039 0
3040 3041 3042 0
3043 3044 3045 0
3046 3047 3048 0
3049 3050 3051 0
3052 3053 3054 0
3055 3056 3057 0
3058 3059 3060 0
3061 3062 3063 0
3064 3065 3066 0
3067 3068 3069 0
3070 3071 3072 0
3073 3074 3075 0
3076 3077 3078 0
3079 3080 3081 0
3082 3083 3084 0
3085 3086 3087 0
3088 3089 3090 0
3091 3092 3093 0
3094 3095 3096 0
3097 3098 3099 0
3100 3101 3102 0
3103 3104 3105 0
3106 3107 3108 0
3109 3110 3111 0
3112 3113 3114 0
3115 3116 3117 0
3118 3119 3120 0
3121 3122 3123 0
3124 3125 3126 0
3127 3128 3129 0
3130 3131 3132 0
3133 3134 3135 0
3136 3137 3138 0
3139 3140 3141 0
3142 3143 3144 0
3145 3146 3147 0
3148 3149 3150 0
3151 3152 3153 0
3154 3155 3156 0
3157 3158 3159 0
3160 3161 3162 0
3163 3164 3165 0
3166 3167 3168 0
3169 3170 3171 0
3172 3173 3174 0
3175 3176 3177 0
3178 3179 3180 0
3181 3182 3183 0
3184 3185 3186 0
3187 3188 3189 0
3190 3191 3192 0
3193 3194 3195 0
3196 3197 3198 0
3199 3200 3201 0
3202 3203 3204 0
3205 3206 3207 0
3208 3209 3210 0
3211 3212 3213 0
3214 3215 3216 0
3217 3218 3219 0
3220 3221 3222 0
3223 3224 3225 0
3226 3227 3228 0
3229 3230 3231 0
3232 3233 3234 0
3235 3236 3237 0
3238 3239 3240 0
3241 3242 3243 0
3244 3245 3246 0
3247 3248 3249 0
3250 3251 3252 0
3253 3254 3255 0
3256 3257 3258 0
3259 3260 3261 0
3262 3263 3264 0
3265 3266 3267 0
3268 3269 3270 0
3271 3272 3273 0
3274 3275 3276 0
3277 3278 3279 0
3280 3281 3282 0
3283 3284 3285 0
3286 3287 3288 0
3289 3290 3291 0
3292 3293 3294 0
3295 3296 3297 0
3298 3299 3300 0
3301 3302 3303 0
3304 3305 3306 0
3307 3308 3309 0
3310 3311 3312 0
3313 3314 3315 0
3316 3317 3318 0
3319 3320 3321 0
3322 3323 3324 0
3325 3326 3327 0
3328 3329 3330 0
3331 3332 3333 0
3334 3335 3336 0
3337 3338 3339 0
3340 3341 3342 0
3343 3344 3345 0
3346 3347 3348 0
3349 3350 3351 0
3352 3353 3354 0
3355 3356 3357 0
3358 3359 3360 0
3361 3362 3363 0
3364 3365 3366 0
3367 3368 3369 0
3370 3371 3372 0
3373 3374 3375 0
3376 3377 3378 0
3379 3380 3381 0
3382 3383 3384 0
3385 3386 3387 0
3388 3389 3390 0
3391 3392 3393 0
3394 3395 3396 0
3397 3398 3399 0
3400 3401 3402 0
3403 3404 3405 0
3406 3407 3408 0
3409 3410 3411 0
3412 3413 3414 0
3415 3416 3417 0
3418 3419 3420 0
3421 3422 3423 0
3424 3425 3426 0
3427 3428 3429 0
3430 3431 3432 0
3433 3434 3435 0
3436 3437 3438 0
3439 3440 3441 0
3442 3443 3444 0
3445 3446 3447 0
3448 3449 3450 0
3451 3452 3453 0
3454 3455 3456 0
3457 3458 3459 0
3460 3461 3462 0
3463 3464 3465 0
3466 3467 3468 0
3469 3470 3471 0
3472 3473 3474 0
3475 3476 3477 0
3478 3479 3480 0
3481 3482 3483 0
3484 3485 3486 0
3487 3488 3489 0
3490 3491 3492 0
3493 3494 3495 0
3496 3497 3498 0
3499 3500 3501 0
3502 3503 3504 0
3505 3506 3507 0
3508 3509 3510 0
3511 3512 3513 0
3514 3515 3516 0
3517 3518 3519 0
3520 3521 3522 0
3523 3524 3525 0
3526 3527 3528 0
3529 3530 3531 0
3532 3533 3534 0
3535 3536 3537 0
3538 3539 3540 0
3541 3542 3543 0
3544 3545 3546 0
3547 3548 3549 0
3550 3551 3552 0
3553 3554 3555 0
3556 3557 3558 0
3559 3560 3561 0
3562 3563 3564 0
3565 3566 3567 0
3568 3569 3570 0
3571 3572 3573 0
3574 3575 3576 0
3577 3578 3579 0
3580 3581 3582 0
3583 3584 3585 0
3586 3587 3588 0
3589 3590 3591 0
3592 3593 3594 0
3595 3596 3597 0
3598 3599 3600 0
3601 3602 3603 0
3604 3605 3606 0
3607 3608 3609 0
3610 3611 3612 0
3613 3614 3615 0
3616 3617 3618 0
3619 3620 3621 0
3622 3623 3624 0
3625 3626 3627 0
3628 3629 3630 0
3631 3632 3633 0
3634 3635 3636 0
3637 3638 3639 0
3640 3641 3642 0
3643 3644 3645 0
3646 3647 3648 0
3649 3650 3651 0
3652 3653 3654 0
3655 3656 3657 0
3658 3659 3660 0
3661 3662 3663 0
3664 3665 3666 0
3667 3668 3669 0
3670 3671 3672 0
3673 3674 3675 0
3676 3677 3678 0
3679 3680 3681 0
3682 3683 3684 0
3685 3686 3687 0
3688 3689 3690 0
3691 3692 3693 0
3694 3695 3696 0
3697 3698 3699 0
3700 3701 3702 0
3703 3704 3705 0
3706 3707 3708 0
3709 3710 3711 0
3712 3713 3714 0
3715 3716 3717 0
3718 3719 3720 0
3721 3722 3723 0
3724 3725 3726 0
3727 3728 3729 0
3730 3731 3732 0
3733 3734 3735 0
3736 3737 3738 0
3739 3740 3741 0
3742 3743 3744 0
3745 3746 3747 0
3748 3749 3750 0
3751 3752 3753 0
3754 3755 3756 0
3757 3758 3759 0
3760 3761 3762 0
3763 3764 3765 0
3766 3767 3768 0
3769 3770 3771 0
3772 3773 3774 0
3775 3776 3777 0
3778 3779 3780 0
3781 3782 3783 0
3784 3785 3786 0
3787 3788 3789 0
3790 3791 3792 0
3793 3794 3795 0
3796 3797 3798 0
3799 3800 3801 0
3802 3803 3804 0
3805 3806 3807 0
3808 3809 3810 0
3811 3812 3813 0
3814 3815 3816 0
3817 3818 3819 0
3820 3821 3822 0
3823 3824 3825 0
3826 3827 3828 0
3829 3830 3831 0
3832 3833 3834 0
3835 3836 3837 0
3838 3839 3840 0
3841 3842 3843 0
3844 3845 3846 0
3847 3848 3849 0
3850 3851 3852 0
3853 3854 3855 0
3856 3857 3858 0
3859 3860 3861 0
3862 3863 3864 0
3865 3866 3867 0
3868 3869 3870 0
3871 3872 3873 0
3874 3875 3876 0
3877 3878 3879 0
3880 3881 3882 0
3883 3884 3885 0
3886 3887 3888 0
3889 3890 3891 0
3892 3893 3894 0
3895 3896 3897 0
3898 3899 3900 0
3901 3902 3903 0
3904 3905 3906 0
3907 3908 3909 0
3910 3911 3912 0
3913 3914 3915 0
3916 3917 3918 0
3919 3920 3921 0
3922 3923 3924 0
3925 3926 3927 0
3928 3929 3930 0
3931 3932 3933 0
3934 3935 3936 0
3937 3938 3939 0
3940 3941 3942 0
3943 3944 3945 0
3946 3947 3948 0
3949 3950 3951 0
3952 3953 3954 0
3955 3956 3957 0
3958 3959 3960 0
3961 3962 3963 0
3964 3965 3966 0
3967 3968 3969 0
3970 3971 3972 0
3973 3974 3975 0
3976 3977 3978 0
3979 3980 3981 0
3982 3983 3984 0
3985 3986 3987 0
3988 3989 3990 0
3991 3992 3993 0
3994 3995 3996 0
3997 3998 3999 0
4000 4001 4002 0
4003 4004 4005 0
4006 4007 4008 0
4009 4010 4011 0
4012 4013 4014 0
4015 4016 4017 0
4018 4019 4020 0
4021 4022 4023 0
4024 4025 4026 0
4027 4028 4029 0
4030 4031 4032 0
4033 4034 4035 0
4036 4037 4038 0
4039 4040 4041 0
4042 4043 4044 0
4045 4046 4047 0
4048 4049 4050 0
4051 4052 4053 0
4054 4055 4056 0
4057 4058 4059 0
4060 4061 4062 0
4063 4064 4065 0
4066 4067 4068 0
4069 4070 4071 0
4072 4073 4074 0
4075 4076 4077 0
4078 4079 4080 0
4081 4082 4083 0
4084 4085 4086 0
4087 4088 4089 0
4090 4091 4092 0
4093 4094 4095 0
4096 4097 4098 0
4099 4100 4101 0
4102 4103 4104 0
4105 4106 4107 0
4108 4109 4110 0
4111 4112 4113 0
4114 4115 4116 0
4117 4118 4119 0
4120 4121 4122 0
4123 4124 4125 0
4126 4127 4128 0
4129 4130 4131 0
4132 4133 4134 0
4135 4136 4137 0
4138 4139 4140 0
4141 4142 4143 0
4144 4145 4146 0
4147 4148 4149 0
4150 4151 4152 0
4153 4154 4155 0
4156 4157 4158 0
4159 4160 4161 0
4162 4163 4164 0
4165 4166 4167 0
4168 4169 4170 0
4171 4172 4173 0
4174 4175 4176 0
4177 4178 4179 0
4180 4181 4182 0
4183 4184 4185 0
4186 4187 4188 0
4189 4190 4191 0
4192 4193 4194 0
4195 4196 4197 0
4198 4199 4200 0
4201 4202 4203 0
4204 4205 4206 0
4207 4208 4209 0
4210 4211 4212 0
4213 4214 4215 0
4216 4217 4218 0
4219 4220 4221 0
4222 4223 4224 0
4225 4226 4227 0
4228 4229 4230 0
4231 4232 4233 0
4234 4235 4236 0
4237 4238 4239 0
4240 4241 4242 0
4243 4244 4245 0
4246 4247 4248 0
4249 4250 4251 0
4252 4253 4254 0
4255 4256 4257 0
4258 4259 4260 0
4261 4262 4263 0
4264 4265 4266 0
4267 4268 4269 0
4270 4271 4272 0
4273 4274 4275 0
4276 4277 4278 0
4279 4280 4281 0
4282 4283 4284 0
4285 4286 4287 0
4288 4289 4290 0
4291 4292 4293 0
4294 4295 4296 0
4297 4298 4299 0
4300 4301 4302 0
4303 4304 4305 0
4306 4307 4308 0
4309 4310 4311 0
4312 4313 4314 0
4315 4316 4317 0
4318 4319 4320 0
4321 4322 4323 0
4324 4325 4326 0
4327 4328 4329 0
4330 4331 4332 0
4333 4334 4335 0
4336 4337 4338 0
4339 4340 4341 0
4342 4343 4344 0
4345 4346 4347 0
4348 4349 4350 0
4351 4352 4353 0
4354 4355 4356 0
4357 4358 4359 0
4360 4361 4362 0
4363 4364 4365 0
4366 4367 4368 0
4369 4370 4371 0
4372 4373 4374 0
4375 4376 4377 0
4378 4379 4380 0
4381 4382 4383 0
4384 4385 4386 0
4387 4388 4389 0
4390 4391 4392 0
4393 4394 4395 0
4396 4397 4398 0
4399 4400 4401 0
4402 4403 4404 0
4405 4406 4407 0
4408 4409 4410 0
4411 4412 4413 0
4414 4415 4416 0
4417 4418 4419 0
4420 4421 4422 0
4423 4424 4425 0
4426 4427 4428 0
4429 4430 4431 0
4432 4433 4434 0
4435 4436 4437 0
4438 4439 4440 0
4441 4442 4443 0
4444 4445 4446 0
4447 4448 4449 0
4450 4451 4452 0
4453 4454 4455 0
4456 4457 4458 0
4459 4460 4461 0
4462 4463 4464 0
4465 4466 4467 0
4468 4469 4470 0
4471 4472 4473 0
4474 4475 4476 0
4477 4478 4479 0
4480 4481 4482 0
4483 4484 4485 0
4486 4487 4488 0
4489 4490 4491 0
4492 4493 4494 0
4495 4496 4497 0
4498 4499 4500 0
4501 4502 4503 0
4504 4505 4506 0
4507 4508 4509 0
4510 4511 4512 0
4513 4514 4515 0
4516 4517 4518 0
4519 4520 4521 0
4522 4523 4524 0
4525 4526 4527 0
4528 4529 4530 0
4531 4532 4533 0
4534 4535 4536 0
4537 4538 4539 0
4540 4541 4542 0
4543 4544 4545 0
4546 4547 4548 0
4549 4550 4551 0
4552 4553 4554 0
4555 4556 4557 0
4558 4559 4560 0
4561 4562 4563 0
4564 4565 4566 0
4567 4568 4569 0
4570 4571 4572 0
4573 4574 4575 0
4576 4577 4578 0
4579 4580 4581 0
4582 4583 4584 0
4585 4586 4587 0
4588 4589 4590 0
4591 4592 4593 0
4594 4595 4596 0
4597 4598 4599 0
4600 4601 4602 0
4603 4604 4605 0
4606 4607 4608 0
4609 4610 4611 0
4612 4613 4614 0
4615 4616 4617 0
4618 4619 4620 0
4621 4622 4623 0
4624 4625 4626 0
4627 4628 4629 0
4630 4631 4632 0
4633 4634 4635 0
4636 4637 4638 0
4639 4640 4641 0
4642 4643 4644 0
4645 4646 4647 0
4648 4649 4650 0
4651 4652 4653 0
4654 4655 4656 0
4657 4658 4659 0
4660 4661 4662 0
4663 4664 4665 0
4666 4667 4668 0
4669 4670 4671 0
4672 4673 4674 0
4675 4676 4677 0
4678 4679 4680 0
4681 4682 4683 0
4684 4685 4686 0
4687 4688 4689 0
4690 4691 4692 0
4693 4694 4695 0
4696 4697 4698 0
4699 4700 4701 0
4702 4703 4704 0
4705 4706 4707 0
4708 4709 4710 0
4711 4712 4713 0
4714 4715 4716 0
4717 4718 4719 0
4720 4721 4722 0
4723 4724 4725 0
4726 4727 4728 0
4729 4730 4731 0
4732 4733 4734 0
4735 4736 4737 0
4738 4739 4740 0
4741 4742 4743 0
4744 4745 4746 0
4747 4748 4749 0
4750 4751 4752 0
4753 4754 4755 0
4756 4757 4758 0
4759 4760 4761 0
4762 4763 4764 0
4765 4766 4767 0
4768 4769 4770 0
4771 4772 4773 0
4774 4775 4776 0
4777 4778 4779 0
4780 4781 4782 0
4783 4784 4785 0
4786 4787 4788 0
4789 4790 4791 0
4792 4793 4794 0
4795 4796 4797 0
4798 4799 4800 0
4801 4802 4803 0
4804 4805 4806 0
4807 4808 4809 0
4810 4811 4812 0
4813 4814 4815 0
4816 4817 4818 0
4819 4820 4821 0
4822 4823 4824 0
4825 4826 4827 0
4828 4829 4830 0
4831 4832 4833 0
4834 4835 4836 0
4837 4838 4839 0
4840 4841 4842 0
4843 4844 4845 0
4846 4847 4848 0
4849 4850 4851 0
4852 4853 4854 0
4855 4856 4857 0
4858 4859 4860 0
4861 4862 4863 0
4864 4865 4866 0
4867 4868 4869 0
4870 4871 4872 0
4873 4874 4875 0
4876 4877 4878 0
4879 4880 4881 0
4882 4883 4884 0
4885 4886 4887 0
4888 4889 4890 0
4891 4892 4893 0
4894 4895 4896 0
4897 4898 4899 0
4900 4901 4902 0
4903 4904 4905 0
4906 4907 4908 0
4909 4910 4911 0
4912 4913 4914 0
4915 4916 4917 0
4918 4919 4920 0
4921 4922 4923 0
4924 4925 4926 0
4927 4928 4929 0
4930 4931 4932 0
4933 4934 4935 0
4936 4937 4938 0
4939 4940 4941 0
4942 4943 4944 0
4945 4946 4947 0
4948 4949 4950 0
4951 4952 4953 0
4954 4955 4956 0
4957 4958 4959 0
4960 4961 4962 0
4963 4964 4965 0
4966 4967 4968 0
4969 4970 4971 0
4972 4973 4974 0
4975 4976 4977 0
4978 4979 4980 0
4981 4982 4983 0
4984 4985 4986 0
4987 4988 4989 0
4990 4991 4992 0
4993 4994 4995 0
4996 4997 4998 0
4999 5000 5001 0
5002 5003 5004 0
5005 5006 5007 0
5008 5009 5010 0
5011 5012 5013 0
5014 5015 5016 0
5017 5018 5019 0
5020 5021 5022 0
5023 5024 5025 0
5026 5027 5028 0
5029 5030 5031 0
5032 5033 5034 0
5035 5036 5037 0
5038 5039 5040 0
5041 5042 5043 0
5044 5045 5046 0
5047 5048 5049 0
5050 5051 5052 0
5053 5054 5055 0
5056 5057 5058 0
5059 5060 5061 0
5062 5063 5064 0
5065 5066 5067 0
5068 5069 5070 0
5071 5072 5073 0
5074 5075 5076 0
5077 5078 5079 0
5080 5081 5082 0
5083 5084 5085 0
5086 5087 5088 0
5089 5090 5091 0
5092 5093 5094 0
5095 5096 5097 0
5098 5099 5100 0
5101 5102 5103 0
5104 5105 5106 0
5107 5108 5109 0
5110 5111 5112 0
5113 5114 5115 0
5116 5117 5118 0
5119 5120 5121 0
5122 5123 5124 0
5125 5126 5127 0
5128 5129 5130 0
5131 5132 5133 0
5134 5135 5136 0
5137 5138 5139 0
5140 5141 5142 0
5143 5144 5145 0
5146 5147 5148 0
5149 5150 5151 0
5152 5153 5154 0
5155 5156 5157 0
5158 5159 5160 0
5161 5162 5163 0
5164 5165 5166 0
5167 5168 5169 0
5170 5171 5172 0
5173 5174 5175 0
5176 5177 5178 0
5179 5180 5181 0
5182 5183 5184 0
5185 5186 5187 0
5188 5189 5190 0
5191 5192 5193 0
5194 5195 5196 0
5197 5198 5199 0
5200 5201 5202 0
5203 5204 5205 0
5206 5207 5208 0
5209 5210 5211 0
5212 5213 5214 0
5215 5216 5217 0
5218 5219 5220 0
5221 5222 5223 0
5224 5225 5226 0
5227 5228 5229 0
5230 5231 5232 0
5233 5234 5235 0
5236 5237 5238 0
5239 5240 5241 0
5242 5243 5244 0
5245 5246 5247 0
5248 5249 5250 0
5251 5252 5253 0
5254 5255 5256 0
5257 5258 5259 0
5260 5261 5262 0
5263 5264 5265 0
5266 5267 5268 0
5269 5270 5271 0
5272 5273 5274 0
5275 5276 5277 0
5278 5279 5280 0
5281 5282 5283 0
5284 5285 5286 0
5287 5288 5289 0
5290 5291 5292 0
5293 5294 5295 0
5296 5297 5298 0
5299 5300 5301 0
5302 5303 5304 0
5305 5306 5307 0
5308 5309 5310 0
5311 5312 5313 0
5314 5315 5316 0
5317 5318 5319 0
5320 5321 5322 0
5323 5324 5325 0
5326 5327 5328 0
5329 5330 5331 0
5332 5333 5334 0
5335 5336 5337 0
5338 5339 5340 0
5341 5342 5343 0
5344 5345 5346 0
5347 5348 5349 0
5350 5351 5352 0
5353 5354 5355 0
5356 5357 5358 0
5359 5360 5361 0
5362 5363 5364 0
5365 5366 5367 0
5368 5369 5370 0
5371 5372 5373 0
5374 5375 5376 0
5377 5378 5379 0
5380 5381 5382 0
5383 5384 5385 0
5386 5387 5388 0
5389 5390 5391 0
5392 5393 5394 0
5395 5396 5397 0
5398 5399 5400 0
5401 5402 5403 0
5404 5405 5406 0
5407 5408 5409 0
5410 5411 5412 0
5413 5414 5415 0
5416 5417 5418 0
5419 5420 5421 0
5422 5423 5424 0
5425 5426 5427 0
5428 5429 5430 0
5431 5432 5433 0
5434 5435 5436 0
5437 5438 5439 0
5440 5441 5442 0
5443 5444 5445 0
5446 5447 5448 0
5449 5450 5451 0
5452 5453 5454 0
5455 5456 5457 0
5458 5459 5460 0
5461 5462 5463 0
5464 5465 5466 0
5467 5468 5469 0
5470 5471 5472 0
5473 5474 5475 0
5476 5477 5478 0
5479 5480 5481 0
5482 5483 5484 0
5485 5486 5487 0
5488 5489 5490 0
5491 5492 5493 0
5494 5495 5496 0
5497 5498 5499 0
5500 5501 5502 0
5503 5504 5505 0
5506 5507 5508 0
5509 5510 5511 0
5512 5513 5514 0
5515 5516 5517 0
5518 5519 5520 0
5521 5522 5523 0
5524 5525 5526 0
5527 5528 5529 0
5530 5531 5532 0
5533 5534 5535 0
5536 5537 5538 0
5539 5540 5541 0
5542 5543 5544 0
5545 5546 5547 0
5548 5549 5550 0
5551 5552 5553 0
5554 5555 5556 0
5557 5558 5559 0
5560 5561 5562 0
5563 5564 5565 0
5566 5567 5568 0
5569 5570 5571 0
5572 5573 5574 0
5575 5576 5577 0
5578 5579 5580 0
5581 5582 5583 0
5584 5585 5586 0
5587 5588 5589 0
5590 5591 5592 0
5593 5594 5595 0
5596 5597 5598 0
5599 5600 5601 0
5602 5603 5604 0
5605 5606 5607 0
5608 5609 5610 0
5611 5612 5613 0
5614 5615 5616 0
5617 5618 5619 0
5620 5621 5622 0
5623 5624 5625 0
5626 5627 5628 0
5629 5630 5631 0
5632 5633 5634 0
5635 5636 5637 0
5638 5639 5640 0
5641 5642 5643 0
5644 5645 5646 0
5647 5648 5649 0
5650 5651 5652 0
5653 5654 5655 0
5656 5657 5658 0
5659 5660 5661 0
5662 5663 5664 0
5665 5666 5667 0
5668 5669 5670 0
5671 5672 5673 0
5674 5675 5676 0
5677 5678 5679 0
5680 5681 5682 0
5683 5684 5685 0
5686 5687 5688 0
5689 5690 5691 0
5692 5693 5694 0
5695 5696 5697 0
5698 5699 5700 0
5701 5702 5703 0
5704 5705 5706 0
5707 5708 5709 0
5710 5711 5712 0
5713 5714 5715 0
5716 5717 5718 0
5719 5720 5721 0
5722 5723 5724 0
5725 5726 5727 0
5728 5729 5730 0
5731 5732 5733 0
5734 5735 5736 0
5737 5738 5739 0
5740 5741 5742 0
5743 5744 5745 0
5746 5747 5748 0
5749 5750 5751 0
5752 5753 5754 0
5755 5756 5757 0
5758 5759 5760 0
5761 5762 5763 0
5764 5765 5766 0
5767 5768 5769 0
5770 5771 5772 0
5773 5774 5775 0
5776 5777 5778 0
5779 5780 5781 0
5782 5783 5784 0
5785 5786 5787 0
5788 5789 5790 0
5791 5792 5793 0
5794 5795 5796 0
5797 5798 5799 0
5800 5801 5802 0
5803 5804 5805 0
5806 5807 5808 0
5809 5810 5811 0
5812 5813 5814 0
5815 5816 5817 0
5818 5819 5820 0
5821 5822 5823 0
5824 5825 5826 0
5827 5828 5829 0
5830 5831 5832 0
5833 5834 5835 0
5836 5837 5838 0
5839 5840 5841 0
5842 5843 5844 0
5845 5846 5847 0
5848 5849 5850 0
5851 5852 5853 0
5854 5855 5856 0
5857 5858 5859 0
5860 5861 5862 0
5863 5864 5865 0
5866 5867 5868 0
5869 5870 5871 0
5872 5873 5874 0
5875 5876 5877 0
5878 5879 5880 0
5881 5882 5883 0
5884 5885 5886 0
5887 5888 5889 0
5890 5891 5892 0
5893 5894 5895 0
5896 5897 5898 0
5899 5900 5901 0
5902 5903 5904 0
5905 5906 5907 0
5908 5909 5910 0
5911 5912 5913 0
5914 5915 5916 0
5917 5918 5919 0
5920 5921 5922 0
5923 5924 5925 0
5926 5927 5928 0
5929 5930 5931 0
5932 5933 5934 0
5935 5936 5937 0
5938 5939 5940 0
5941 5942 5943 0
5944 5945 5946 0
5947 5948 5949 0
5950 5951 5952 0
5953 5954 5955 0
5956 5957 5958 0
5959 5960 5961 0
5962 5963 5964 0
5965 5966 5967 0
5968 5969 5970 0
5971 5972 5973 0
5974 5975 5976 0
5977 5978 5979 0
5980 5981 5982 0
5983 5984 5985 0
5986 5987 5988 0
5989 5990 5991 0
5992 5993 5994 0
5995 5996 5997 0
5998 5999 6000 0
6001 6002 6003 0
6004 6005 6006 0
6007 6008 6009 0
6010 6011 6012 0
6013 6014 6015 0
6016 6017 6018 0
6019 6020 6021 0
6022 6023 6024 0
6025 6026 6027 0
6028 6029 6030 0
6031 6032 6033 0
6034 6035 6036 0
6037 6038 6039 0
6040 6041 6042 0
6043 6044 6045 0
6046 6047 6048 0
6049 6050 6051 0
6052 6053 6054 0
6055 6056 6057 0
6058 6059 6060 0
6061 6062 6063 0
6064 6065 6066 0
6067 6068 6069 0
6070 6071 6072 0
6073 6074 6075 0
6076 6077 6078 0
6079 6080 6081 0
6082 6083 6084 0
6085 6086 6087 0
6088 6089 6090 0
6091 6092 6093 0
6094 6095 6096 0
6097 6098 6099 0
6100 6101 6102 0
6103 6104 6105 0
6106 6107 6108 0
6109 6110 6111 0
6112 6113 6114 0
6115 6116 6117 0
6118 6119 6120 0
6121 6122 6123 0
6124 6125 6126 0
6127 6128 6129 0
6130 6131 6132 0
6133 6134 6135 0
6136 6137 6138 0
6139 6140 6141 0
6142 6143 6144 0
6145 6146 6147 0
6148 6149 6150 0
6151 6152 6153 0
6154 6155 6156 0
6157 6158 6159 0
6160 6161 6162 0
6163 6164 6165 0
6166 6167 6168 0
6169 6170 6171 0
6172 6173 6174 0
6175 6176 6177 0
6178 6179 6180 0
6181 6182 6183 0
6184 6185 6186 0
6187 6188 6189 0
6190 6191 6192 0
6193 6194 6195 0
6196 6197 6198 0
6199 6200 6201 0
6202 6203 6204 0
6205 6206 6207 0
6208 6209 6210 0
6211 6212 6213 0
6214 6215 6216 0
6217 6218 6219 0
6220 6221 6222 0
6223 6224 6225 0
6226 6227 6228 0
6229 6230 6231 0
6232 6233 6234 0
6235 6236 6237 0
6238 6239 6240 0
6241 6242 6243 0
6244 6245 6246 0
6247 6248 6249 0
6250 6251 6252 0
6253 6254 6255 0
6256 6257 6258 0
6259 6260 6261 0
6262 6263 6264 0
6265 6266 6267 0
6268 6269 6270 0
6271 6272 6273 0
6274 6275 6276 0
6277 6278 6279 0
6280 6281 6282 0
6283 6284 6285 0
6286 6287 6288 0
6289 6290 6291 0
6292 6293 6294 0
6295 6296 6297 0
6298 6299 6300 0
6301 6302 6303 0
6304 6305 6306 0
6307 6308 6309 0
6310 6311 6312 0
6313 6314 6315 0
6316 6317 6318 0
6319 6320 6321 0
6322 6323 6324 0
6325 6326 6327 0
6328 6329 6330 0
6331 6332 6333 0
6334 6335 6336 0
6337 6338 6339 0
6340 6341 6342 0
6343 6344 6345 0
6346 6347 6348 0
6349 6350 6351 0
6352 6353 6354 0
6355 6356 6357 0
6358 6359 6360 0
6361 6362 6363 0
6364 6365 6366 0
6367 6368 6369 0
6370 6371 6372 0
6373 6374 6375 0
6376 6377 6378 0
6379 6380 6381 0
6382 6383 6384 0
6385 6386 6387 0
6388 6389 6390 0
6391 6392 6393 0
6394 6395 6396 0
6397 6398 6399 0
6400 6401 6402 0
6403 6404 6405 0
6406 6407 6408 0
6409 6410 6411 0
6412 6413 6414 0
6415 6416 6417 0
6418 6419 6420 0
6421 6422 6423 0
6424 6425 6426 0
6427 6428 6429 0
6430 6431 6432 0
6433 6434 6435 0
6436 6437 6438 0
6439 6440 6441 0
6442 6443 6444 0
6445 6446 6447 0
6448 6449 6450 0
6451 6452 6453 0
6454 6455 6456 0
6457 6458 6459 0
6460 6461 6462 0
6463 6464 6465 0
6466 6467 6468 0
6469 6470 6471 0
6472 6473 6474 0
6475 6476 6477 0
6478 6479 6480 0
6481 6482 6483 0
6484 6485 6486 0
6487 6488 6489 0
6490 6491 6492 0
6493 6494 6495 0
6496 6497 6498 0
6499 6500 6501 0
6502 6503 6504 0
6505 6506 6507 0
6508 6509 6510 0
6511 6512 6513 0
6514 6515 6516 0
6517 6518 6519 0
6520 6521 6522 0
6523 6524 6525 0
6526 6527 6528 0
6529 6530 6531 0
6532 6533 6534 0
6535 6536 6537 0
6538 6539 6540 0
6541 6542 6543 0
6544 6545 6546 0
6547 6548 6549 0
6550 6551 6552 0
6553 6554 6555 0
6556 6557 6558 0
6559 6560 6561 0
6562 6563 6564 0
6565 6566 6567 0
6568 6569 6570 0
6571 6572 6573 0
6574 6575 6576 0
6577 6578 6579 0
6580 6581 6582 0
6583 6584 6585 0
6586 6587 6588 0
6589 6590 6591 0
6592 6593 6594 0
6595 6596 6597 0
6598 6599 6600 0
6601 6602 6603 0
6604 6605 6606 0
6607 6608 6609 0
6610 6611 6612 0
6613 6614 6615 0
6616 6617 6618 0
6619 6620 6621 0
6622 6623 6624 0
6625 6626 6627 0
6628 6629 6630 0
6631 6632 6633 0
6634 6635 6636 0
6637 6638 6639 0
6640 6641 6642 0
6643 6644 6645 0
6646 6647 6648 0
6649 6650 6651 0
6652 6653 6654 0
6655 6656 6657 0
6658 6659 6660 0
6661 6662 6663 0
6664 6665 6666 0
6667 6668 6669 0
6670 6671 6672 0
6673 6674 6675 0
6676 6677 6678 0
6679 6680 6681 0
6682 6683 6684 0
6685 6686 6687 0
6688 6689 6690 0
6691 6692 6693 0
6694 6695 6696 0
6697 6698 6699 0
6700 6701 6702 0
6703 6704 6705 0
6706 6707 6708 0
6709 6710 6711 0
6712 6713 6714 0
6715 6716 6717 0
6718 6719 6720 0
6721 6722 6723 0
6724 6725 6726 0
6727 6728 6729 0
6730 6731 6732 0
6733 6734 6735 0
6736 6737 6738 0
6739 6740 6741 0
6742 6743 6744 0
6745 6746 6747 0
6748 6749 6750 0
6751 6752 6753 0
6754 6755 6756 0
6757 6758 6759 0
6760 6761 6762 0
6763 6764 6765 0
6766 6767 6768 0
6769 6770 6771 0
6772 6773 6774 0
6775 6776 6777 0
6778 6779 6780 0
6781 6782 6783 0
6784 6785 6786 0
6787 6788 6789 0
6790 6791 6792 0
6793 6794 6795 0
6796 6797 6798 0
6799 6800 6801 0
6802 6803 6804 0
6805 6806 6807 0
6808 6809 6810 0
6811 6812 6813 0
6814 6815 6816 0
6817 6818 6819 0
6820 6821 6822 0
6823 6824 6825 0
6826 6827 6828 0
6829 6830 6831 0
6832 6833 6834 0
6835 6836 6837 0
6838 6839 6840 0
6841 6842 6843 0
6844 6845 6846 0
6847 6848 6849 0
6850 6851 6852 0
6853 6854 6855 0
6856 6857 6858 0
6859 6860 6861 0
6862 6863 6864 0
6865 6866 6867 0
6868 6869 6870 0
6871 6872 6873 0
6874 6875 6876 0
6877 6878 6879 0
6880 6881 6882 0
6883 6884 6885 0
6886 6887 6888 0
6889 6890 6891 0
6892 6893 6894 0
6895 6896 6897 0
6898 6899 6900 0
6901 6902 6903 0
6904 6905 6906 0
6907 6908 6909 0
6910 6911 6912 0
6913 6914 6915 0
6916 6917 6918 0
6919 6920 6921 0
6922 6923 6924 0
6925 6926 6927 0
6928 6929 6930 0
6931 6932 6933 0
6934 6935 6936 0
6937 6938 6939 0
6940 6941 6942 0
6943 6944 6945 0
6946 6947 6948 0
6949 6950 6951 0
6952 6953 6954 0
6955 6956 6957 0
6958 6959 6960 0
6961 6962 6963 0
6964 6965 6966 0
6967 6968 6969 0
6970 6971 6972 0
6973 6974 6975 0
6976 6977 6978 0
6979 6980 6981 0
6982 6983 6984 0
6985 6986 6987 0
6988 6989 6990 0
6991 6992 6993 0
6994 6995 6996 0
6997 6998 6999 0
7000 7001 7002 0
7003 7004 7005 0
7006 7007 7008 0
7009 7010 7011 0
7012 7013 7014 0
7015 7016 7017 0
7018 7019 7020 0
7021 7022 7023 0
7024 7025 7026 0
7027 7028 7029 0
7030 7031 7032 0
7033 7034 7035 0
7036 7037 7038 0
7039 7040 7041 0
7042 7043 7044 0
7045 7046 7047 0
7048 7049 7050 0
7051 7052 7053 0
7054 7055 7056 0
7057 7058 7059 0
7060 7061 7062 0
7063 7064 7065 0
7066 7067 7068 0
7069 7070 7071 0
7072 7073 7074 0
7075 7076 7077 0
7078 7079 7080 0
7081 7082 7083 0
7084 7085 7086 0
7087 7088 7089 0
7090 7091 7092 0
7093 7094 7095 0
7096 7097 7098 0
7099 7100 7101 0
7102 7103 7104 0
7105 7106 7107 0
7108 7109 7110 0
7111 7112 7113 0
7114 7115 7116 0
7117 7118 7119 0
7120 7121 7122 0
7123 7124 7125 0
7126 7127 7128 0
7129 7130 7131 0
7132 7133 7134 0
7135 7136 7137 0
7138 7139 7140 0
7141 7142 7143 0
7144 7145 7146 0
7147 7148 7149 0
7150 7151 7152 0
7153 7154 7155 0
7156 7157 7158 0
7159 7160 7161 0
7162 7163 7164 0
7165 7166 7167 0
7168 7169 7170 0
7171 7172 7173 0
7174 7175 7176 0
7177 7178 7179 0
7180 7181 7182 0
7183 7184 7185 0
7186 7187 7188 0
7189 7190 7191 0
7192 7193 7194 0
7195 7196 7197 0
7198 7199 7200 0
7201 7202 7203 0
7204 7205 7206 0
7207 7208 7209 0
7210 7211 7212 0
7213 7214 7215 0
7216 7217 7218 0
7219 7220 7221 0
7222 7223 7224 0
7225 7226 7227 0
7228 7229 7230 0
7231 7232 7233 0
7234 7235 7236 0
7237 7238 7239 0
7240 7241 7242 0
7243 7244 7245 0
7246 7247 7248 0
7249 7250 7251 0
7252 7253 7254 0
7255 7256 7257 0
7258 7259 7260 0
7261 7262 7263 0
7264 7265 7266 0
7267 7268 7269 0
7270 7271 7272 0
7273 7274 7275 0
7276 7277 7278 0
7279 7280 7281 0
7282 7283 7284 0
7285 7286 7287 0
7288 7289 7290 0
7291 7292 7293 0
7294 7295 7296 0
7297 7298 7299 0
7300 7301 7302 0
7303 7304 7305 0
7306 7307 7308 0
7309 7310 7311 0
7312 7313 7314 0
7315 7316 7317 0
7318 7319 7320 0
7321 7322 7323 0
7324 7325 7326 0
7327 7328 7329 0
7330 7331 7332 0
7333 7334 7335 0
7336 7337 7338 0
7339 7340 7341 0
7342 7343 7344 0
7345 7346 7347 0
7348 7349 7350 0
7351 7352 7353 0
7354 7355 7356 0
7357 7358 7359 0
7360 7361 7362 0
7363 7364 7365 0
7366 7367 7368 0
7369 7370 7371 0
7372 7373 7374 0
7375 7376 7377 0
7378 7379 7380 0
7381 7382 7383 0
7384 7385 7386 0
7387 7388 7389 0
7390 7391 7392 0
7393 7394 7395 0
7396 7397 7398 0
7399 7400 7401 0
7402 7403 7404 0
7405 7406 7407 0
7408 7409 7410 0
7411 7412 7413 0
7414 7415 7416 0
7417 7418 7419 0
7420 7421 7422 0
7423 7424 7425 0
7426 7427 7428 0
7429 7430 7431 0
7432 7433 7434 0
7435 7436 7437 0
7438 7439 7440 0
7441 7442 7443 0
7444 7445 7446 0
7447 7448 7449 0
7450 7451 7452 0
7453 7454 7455 0
7456 7457 7458 0
7459 7460 7461 0
7462 7463 7464 0
7465 7466 7467 0
7468 7469 7470 0
7471 7472 7473 0
7474 7475 7476 0
7477 7478 7479 0
7480 7481 7482 0
7483 7484 7485 0
7486 7487 7488 0
7489 7490 7491 0
7492 7493 7494 0
7495 7496 7497 0
7498 7499 7500 0
7501 7502 7503 0
7504 7505 7506 0
7507 7508 7509 0
7510 7511 7512 0
7513 7514 7515 0
7516 7517 7518 0
7519 7520 7521 0
7522 7523 7524 0
7525 7526 7527 0
7528 7529 7530 0
7531 7532 7533 0
7534 7535 7536 0
7537 7538 7539 0
7540 7541 7542 0
7543 7544 7545 0
7546 7547 7548 0
7549 7550 7551 0
7552 7553 7554 0
7555 7556 7557 0
7558 7559 7560 0
7561 7562 7563 0
7564 7565 7566 0
7567 7568 7569 0
7570 7571 7572 0
7573 7574 7575 0
7576 7577 7578 0
7579 7580 7581 0
7582 7583 7584 0
7585 7586 7587 0
7588 7589 7590 0
7591 7592 7593 0
7594 7595 7596 0
7597 7598 7599 0
7600 7601 7602 0
7603 7604 7605 0
7606 7607 7608 0
7609 7610 7611 0
7612 7613 7614 0
7615 7616 7617 0
7618 7619 7620 0
7621 7622 7623 0
7624 7625 7626 0
7627 7628 7629 0
7630 7631 7632 0
7633 7634 7635 0
7636 7637 7638 0
7639 7640 7641 0
7642 7643 7644 0
7645 7646 7647 0
7648 7649 7650 0
7651 7652 7653 0
7654 7655 7656 0
7657 7658 7659 0
7660 7661 7662 0
7663 7664 7665 0
7666 7667 7668 0
7669 7670 7671 0
7672 7673 7674 0
7675 7676 7677 0
7678 7679 7680 0
7681 7682 7683 0
7684 7685 7686 0
7687 7688 7689 0
7690 7691 7692 0
7693 7694 7695 0
7696 7697 7698 0
7699 7700 7701 0
7702 7703 7704 0
7705 7706 7707 0
7708 7709 7710 0
7711 7712 7713 0
7714 7715 7716 0
7717 7718 7719 0
7720 7721 7722 0
7723 7724 7725 0
7726 7727 7728 0
7729 7730 7731 0
7732 7733 7734 0
7735 7736 7737 0
7738 7739 7740 0
7741 7742 7743 0
7744 7745 7746 0
7747 7748 7749 0
7750 7751 7752 0
7753 7754 7755 0
7756 7757 7758 0
7759 7760 7761 0
7762 7763 7764 0
7765 7766 7767 0
7768 7769 7770 0
7771 7772 7773 0
7774 7775 7776 0
7777 7778 7779 0
7780 7781 7782 0
7783 7784 7785 0
7786 7787 7788 0
7789 7790 7791 0
7792 7793 7794 0
7795 7796 7797 0
7798 7799 7800 0
7801 7802 7803 0
7804 7805 7806 0
7807 7808 7809 0
7810 7811 7812 0
7813 7814 7815 0
7816 7817 7818 0
7819 7820 7821 0
7822 7823 7824 0
7825 7826 7827 0
7828 7829 7830 0
7831 7832 7833 0
7834 7835 7836 0
7837 7838 7839 0
7840 7841 7842 0
7843 7844 7845 0
7846 7847 7848 0
7849 7850 7851 0
7852 7853 7854 0
7855 7856 7857 0
7858 7859 7860 0
7861 7862 7863 0
7864 7865 7866 0
7867 7868 7869 0
7870 7871 7872 0
7873 7874 7875 0
7876 7877 7878 0
7879 7880 7881 0
7882 7883 7884 0
7885 7886 7887 0
7888 7889 7890 0
7891 7892 7893 0
7894 7895 7896 0
7897 7898 7899 0
7900 7901 7902 0
7903 7904 7905 0
7906 7907 7908 0
7909 7910 7911 0
7912 7913 7914 0
7915 7916 7917 0
7918 7919 7920 0
7921 7922 7923 0
7924 7925 7926 0
7927 7928 7929 0
7930 7931 7932 0
7933 7934 7935 0
7936 7937 7938 0
7939 7940 7941 0
7942 7943 7944 0
7945 7946 7947 0
7948 7949 7950 0
7951 7952 7953 0
7954 7955 7956 0
7957 7958 7959 0
7960 7961 7962 0
7963 7964 7965 0
7966 7967 7968 0
7969 7970 7971 0
7972 7973 7974 0
7975 7976 7977 0
7978 7979 7980 0
7981 7982 7983 0
7984 7985 7986 0
7987 7988 7989 0
7990 7991 7992 0
7993 7994 7995 0
7996 7997 7998 0
7999 8000 8001 0
8002 8003 8004 0
8005 8006 8007 0
8008 8009 8010 0
8011 8012 8013 0
8014 8015 8016 0
8017 8018 8019 0
8020 8021 8022 0
8023 8024 8025 0
8026 8027 8028 0
8029 8030 8031 0
8032 8033 8034 0
8035 8036 8037 0
8038 8039 8040 0
8041 8042 8043 0
8044 8045 8046 0
8047 8048 8049 0
8050 8051 8052 0
8053 8054 8055 0
8056 8057 8058 0
8059 8060 8061 0
8062 8063 8064 0
8065 8066 8067 0
8068 8069 8070 0
8071 8072 8073 0
8074 8075 8076 0
8077 8078 8079 0
8080 8081 8082 0
8083 8084 8085 0
8086 8087 8088 0
8089 8090 8091 0
8092 8093 8094 0
8095 8096 8097 0
8098 8099 8100 0
8101 8102 8103 0
8104 8105 8106 0
8107 8108 8109 0
8110 8111 8112 0
8113 8114 8115 0
8116 8117 8118 0
8119 8120 8121 0
8122 8123 8124 0
8125 8126 8127 0
8128 8129 8130 0
8131 8132 8133 0
8134 8135 8136 0
8137 8138 8139 0
8140 8141 8142 0
8143 8144 8145 0
8146 8147 8148 0
8149 8150 8151 0
8152 8153 8154 0
8155 8156 8157 0
8158 8159 8160 0
8161 8162 8163 0
8164 8165 8166 0
8167 8168 8169 0
8170 8171 8172 0
8173 8174 8175 0
8176 8177 8178 0
8179 8180 8181 0
8182 8183 8184 0
8185 8186 8187 0
8188 8189 8190 0
8191 8192 8193 0
8194 8195 8196 0
8197 8198 8199 0
8200 8201 8202 0
8203 8204 8205 0
8206 8207 8208 0
8209 8210 8211 0
8212 8213 8214 0
8215 8216 8217 0
8218 8219 8220 0
8221 8222 8223 0
8224 8225 8226 0
8227 8228 8229 0
8230 8231 8232 0
8233 8234 8235 0
8236 8237 8238 0
8239 8240 8241 0
8242 8243 8244 0
8245 8246 8247 0
8248 8249 8250 0
8251 8252 8253 0
8254 8255 8256 0
8257 8258 8259 0
8260 8261 8262 0
8263 8264 8265 0
8266 8267 8268 0
8269 8270 8271 0
8272 8273 8274 0
8275 8276 8277 0
8278 8279 8280 0
8281 8282 8283 0
8284 8285 8286 0
8287 8288 8289 0
8290 8291 8292 0
8293 8294 8295 0
8296 8297 8298 0
8299 8300 8301 0
8302 8303 8304 0
8305 8306 8307 0
8308 8309 8310 0
8311 8312 8313 0
8314 8315 8316 0
8317 8318 8319 0
8320 8321 8322 0
8323 8324 8325 0
8326 8327 8328 0
8329 8330 8331 0
8332 8333 8334 0
8335 8336 8337 0
8338 8339 8340 0
8341 8342 8343 0
8344 8345 8346 0
8347 8348 8349 0
8350 8351 8352 0
8353 8354 8355 0
8356 8357 8358 0
8359 8360 8361 0
8362 8363 8364 0
8365 8366 8367 0
8368 8369 8370 0
8371 8372 8373 0
8374 8375 8376 0
8377 8378 8379 0
8380 8381 8382 0
8383 8384 8385 0
8386 8387 8388 0
8389 8390 8391 0
8392 8393 8394 0
8395 8396 8397 0
8398 8399 8400 0
8401 8402 8403 0
8404 8405 8406 0
8407 8408 8409 0
8410 8411 8412 0
8413 8414 8415 0
8416 8417 8418 0
8419 8420 8421 0
8422 8423 8424 0
8425 8426 8427 0
8428 8429 8430 0
8431 8432 8433 0
8434 8435 8436 0
8437 8438 8439 0
8440 8441 8442 0
8443 8444 8445 0
8446 8447 8448 0
8449 8450 8451 0
8452 8453 8454 0
8455 8456 8457 0
8458 8459 8460 0
8461 8462 8463 0
8464 8465 8466 0
8467 8468 8469 0
8470 8471 8472 0
8473 8474 8475 0
8476 8477 8478 0
8479 8480 8481 0
8482 8483 8484 0
8485 8486 8487 0
8488 8489 8490 0
8491 8492 8493 0
8494 8495 8496 0
8497 8498 8499 0
8500 8501 8502 0
8503 8504 8505 0
8506 8507 8508 0
8509 8510 8511 0
8512 8513 8514 0
8515 8516 8517 0
8518 8519 8520 0
8521 8522 8523 0
8524 8525 8526 0
8527 8528 8529 0
8530 8531 8532 0
8533 8534 8535 0
8536 8537 8538 0
8539 8540 8541 0
8542 8543 8544 0
8545 8546 8547 0
8548 8549 8550 0
8551 8552 8553 0
8554 8555 8556 0
8557 8558 8559 0
8560 8561 8562 0
8563 8564 8565 0
8566 8567 8568 0
8569 8570 8571 0
8572 8573 8574 0
8575 8576 8577 0
8578 8579 8580 0
8581 8582 8583 0
8584 8585 8586 0
8587 8588 8589 0
8590 8591 8592 0
8593 8594 8595 0
8596 8597 8598 0
8599 8600 8601 0
8602 8603 8604 0
8605 8606 8607 0
8608 8609 8610 0
8611 8612 8613 0
8614 8615 8616 0
8617 8618 8619 0
8620 8621 8622 0
8623 8624 8625 0
8626 8627 8628 0
8629 8630 8631 0
8632 8633 8634 0
8635 8636 8637 0
8638 8639 8640 0
8641 8642 8643 0
8644 8645 8646 0
8647 8648 8649 0
8650 8651 8652 0
8653 8654 8655 0
8656 8657 8658 0
8659 8660 8661 0
8662 8663 8664 0
8665 8666 8667 0
8668 8669 8670 0
8671 8672 8673 0
8674 8675 8676 0
8677 8678 8679 0
8680 8681 8682 0
8683 8684 8685 0
8686 8687 8688 0
8689 8690 8691 0
8692 8693 8694 0
8695 8696 8697 0
8698 8699 8700 0
8701 8702 8703 0
8704 8705 8706 0
8707 8708 8709 0
8710 8711 8712 0
8713 8714 8715 0
8716 8717 8718 0
8719 8720 8721 0
8722 8723 8724 0
8725 8726 8727 0
8728 8729 8730 0
8731 8732 8733 0
8734 8735 8736 0
8737 8738 8739 0
8740 8741 8742 0
8743 8744 8745 0
8746 8747 8748 0
8749 8750 8751 0
8752 8753 8754 0
8755 8756 8757 0
8758 8759 8760 0
8761 8762 8763 0
8764 8765 8766 0
8767 8768 8769 0
8770 8771 8772 0
8773 8774 8775 0
8776 8777 8778 0
8779 8780 8781 0
8782 8783 8784 0
8785 8786 8787 0
8788 8789 8790 0
8791 8792 8793 0
8794 8795 8796 0
8797 8798 8799 0
8800 8801 8802 0
8803 8804 8805 0
8806 8807 8808 0
8809 8810 8811 0
8812 8813 8814 0
8815 8816 8817 0
8818 8819 8820 0
8821 8822 8823 0
8824 8825 8826 0
8827 8828 8829 0
8830 8831 8832 0
8833 8834 8835 0
8836 8837 8838 0
8839 8840 8841 0
8842 8843 8844 0
8845 8846 8847 0
8848 8849 8850 0
8851 8852 8853 0
8854 8855 8856 0
8857 8858 8859 0
8860 8861 8862 0
8863 8864 8865 0
8866 8867 8868 0
8869 8870 8871 0
8872 8873 8874 0
8875 8876 8877 0
8878 8879 8880 0
8881 8882 8883 0
8884 8885 8886 0
8887 8888 8889 0
8890 8891 8892 0
8893 8894 8895 0
8896 8897 8898 0
8899 8900 8901 0
8902 8903 8904 0
8905 8906 8907 0
8908 8909 8910 0
8911 8912 8913 0
8914 8915 8916 0
8917 8918 8919 0
8920 8921 8922 0
8923 8924 8925 0
8926 8927 8928 0
8929 8930 8931 0
8932 8933 8934 0
8935 8936 8937 0
8938 8939 8940 0
8941 8942 8943 0
8944 8945 8946 0
8947 8948 8949 0
8950 8951 8952 0
8953 8954 8955 0
8956 8957 8958 0
8959 8960 8961 0
8962 8963 8964 0
8965 8966 8967 0
8968 8969 8970 0
8971 8972 8973 0
8974 8975 8976 0
8977 8978 8979 0
8980 8981 8982 0
8983 8984 8985 0
8986 8987 8988 0
8989 8990 8991 0
8992 8993 8994 0
8995 8996 8997 0
8998 8999 9000 0
9001 9002 9003 0
9004 9005 9006 0
9007 9008 9009 0
9010 9011 9012 0
9013 9014 9015 0
9016 9017 9018 0
9019 9020 9021 0
9022 9023 9024 0
9025 9026 9027 0
9028 9029 9030 0
9031 9032 9033 0
9034 9035 9036 0
9037 9038 9039 0
9040 9041 9042 0
9043 9044 9045 0
9046 9047 9048 0
9049 9050 9051 0
9052 9053 9054 0
9055 9056 9057 0
9058 9059 9060 0
9061 9062 9063 0
9064 9065 9066 0
9067 9068 9069 0
9070 9071 9072 0
9073 9074 9075 0
9076 9077 9078 0
9079 9080 9081 0
9082 9083 9084 0
9085 9086 9087 0
9088 9089 9090 0
9091 9092 9093 0
9094 9095 9096 0
9097 9098 9099 0
9100 9101 9102 0
9103 9104 9105 0
9106 9107 9108 0
9109 9110 9111 0
9112 9113 9114 0
9115 9116 9117 0
9118 9119 9120 0
9121 9122 9123 0
9124 9125 9126 0
9127 9128 9129 0
9130 9131 9132 0
9133 9134 9135 0
9136 9137 9138 0
9139 9140 9141 0
9142 9143 9144 0
9145 9146 9147 0
9148 9149 9150 0
9151 9152 9153 0
9154 9155 9156 0
9157 9158 9159 0
9160 9161 9162 0
9163 9164 9165 0
9166 9167 9168 0
9169 9170 9171 0
9172 9173 9174 0
9175 9176 9177 0
9178 9179 9180 0
9181 9182 9183 0
9184 9185 9186 0
9187 9188 9189 0
9190 9191 9192 0
9193 9194 9195 0
9196 9197 9198 0
9199 9200 9201 0
9202 9203 9204 0
9205 9206 9207 0
9208 9209 9210 0
9211 9212 9213 0
9214 9215 9216 0
9217 9218 9219 0
9220 9221 9222 0
9223 9224 9225 0
9226 9227 9228 0
9229 9230 9231 0
9232 9233 9234 0
9235 9236 9237 0
9238 9239 9240 0
9241 9242 9243 0
9244 9245 9246 0
9247 9248 9249 0
9250 9251 9252 0
9253 9254 9255 0
9256 9257 9258 0
9259 9260 9261 0
9262 9263 9264 0
9265 9266 9267 0
9268 9269 9270 0
9271 9272 9273 0
9274 9275 9276 0
9277 9278 9279 0
9280 9281 9282 0
9283 9284 9285 0
9286 9287 9288 0
9289 9290 9291 0
9292 9293 9294 0
9295 9296 9297 0
9298 9299 9300 0
9301 9302 9303 0
9304 9305 9306 0
9307 9308 9309 0
9310 9311 9312 0
9313 9314 9315 0
9316 9317 9318 0
9319 9320 9321 0
9322 9323 9324 0
9325 9326 9327 0
9328 9329 9330 0
9331 9332 9333 0
9334 9335 9336 0
9337 9338 9339 0
9340 9341 9342 0
9343 9344 9345 0
9346 9347 9348 0
9349 9350 9351 0
9352 9353 9354 0
9355 9356 9357 0
9358 9359 9360 0
9361 9362 9363 0
9364 9365 9366 0
9367 9368 9369 0
9370 9371 9372 0
9373 9374 9375 0
9376 9377 9378 0
9379 9380 9381 0
9382 9383 9384 0
9385 9386 9387 0
9388 9389 9390 0
9391 9392 9393 0
9394 9395 9396 0
9397 9398 9399 0
9400 9401 9402 0
9403 9404 9405 0
9406 9407 9408 0
9409 9410 9411 0
9412 9413 9414 0
9415 9416 9417 0
9418 9419 9420 0
9421 9422 9423 0
9424 9425 9426 0
9427 9428 9429 0
9430 9431 9432 0
9433 9434 9435 0
9436 9437 9438 0
9439 9440 9441 0
9442 9443 9444 0
9445 9446 9447 0
9448 9449 9450 0
9451 9452 9453 0
9454 9455 9456 0
9457 9458 9459 0
9460 9461 9462 0
9463 9464 9465 0
9466 9467 9468 0
9469 9470 9471 0
9472 9473 9474 0
9475 9476 9477 0
9478 9479 9480 0
9481 9482 9483 0
9484 9485 9486 0
9487 9488 9489 0
9490 9491 9492 0
9493 9494 9495 0
9496 9497 9498 0
9499 9500 9501 0
9502 9503 9504 0
9505 9506 9507 0
9508 9509 9510 0
9511 9512 9513 0
9514 9515 9516 0
9517 9518 9519 0
9520 9521 9522 0
9523 9524 9525 0
9526 9527 9528 0
9529 9530 9531 0
9532 9533 9534 0
9535 9536 9537 0
9538 9539 9540 0
9541 9542 9543 0
9544 9545 9546 0
9547 9548 9549 0
9550 9551 9552 0
9553 9554 9555 0
9556 9557 9558 0
9559 9560 9561 0
9562 9563 9564 0
9565 9566 9567 0
9568 9569 9570 0
9571 9572 9573 0
9574 9575 9576 0
9577 9578 9579 0
9580 9581 9582 0
9583 9584 9585 0
9586 9587 9588 0
9589 9590 9591 0
9592 9593 9594 0
9595 9596 9597 0
9598 9599 9600 0
9601 9602 9603 0
9604 9605 9606 0
9607 9608 9609 0
9610 9611 9612 0
9613 9614 9615 0
9616 9617 9618 0
9619 9620 9621 0
9622 9623 9624 0
9625 9626 9627 0
9628 9629 9630 0
9631 9632 9633 0
9634 9635 9636 0
9637 9638 9639 0
9640 9641 9642 0
9643 9644 9645 0
9646 9647 9648 0
9649 9650 9651 0
9652 9653 9654 0
9655 9656 9657 0
9658 9659 9660 0
9661 9662 9663 0
9664 9665 9666 0
9667 9668 9669 0
9670 9671 9672 0
9673 9674 9675 0
9676 9677 9678 0
9679 9680 9681 0
9682 9683 9684 0
9685 9686 9687 0
9688 9689 9690 0
9691 9692 9693 0
9694 9695 9696 0
9697 9698 9699 0
9700 9701 9702 0
9703 9704 9705 0
9706 9707 9708 0
9709 9710 9711 0
9712 9713 9714 0
9715 9716 9717 0
9718 9719 9720 0
9721 9722 9723 0
9724 9725 9726 0
9727 9728 9729 0
9730 9731 9732 0
9733 9734 9735 0
9736 9737 9738 0
9739 9740 9741 0
9742 9743 9744 0
9745 9746 9747 0
9748 9749 9750 0
9751 9752 9753 0
9754 9755 9756 0
9757 9758 9759 0
9760 9761 9762 0
9763 9764 9765 0
9766 9767 9768 0
9769 9770 9771 0
9772 9773 9774 0
9775 9776 9777 0
9778 9779 9780 0
9781 9782 9783 0
9784 9785 9786 0
9787 9788 9789 0
9790 9791 9792 0
9793 9794 9795 0
9796 9797 9798 0
9799 9800 9801 0
9802 9803 9804 0
9805 9806 9807 0
9808 9809 9810 0
9811 9812 9813 0
9814 9815 9816 0
9817 9818 9819 0
9820 9821 9822 0
9823 9824 9825 0
9826 9827 9828 0
9829 9830 9831 0
9832 9833 9834 0
9835 9836 9837 0
9838 9839 9840 0
9841 9842 9843 0
9844 9845 9846 0
9847 9848 9849 0
9850 9851 9852 0
9853 9854 9855 0
9856 9857 9858 0
9859 9860 9861 0
9862 9863 9864 0
9865 9866 9867 0
9868 9869 9870 0
9871 9872 9873 0
9874 9875 9876 0
9877 9878 9879 0
9880 9881 9882 0
9883 9884 9885 0
9886 9887 9888 0
9889 9890 9891 0
9892 9893 9894 0
9895 9896 9897 0
9898 9899 9900 0
9901 9902 9903 0
9904 9905 9906 0
9907 9908 9909 0
9910 9911 9912 0
9913 9914 9915 0
9916 9917 9918 0
9919 9920 9921 0
9922 9923 9924 0
9925 9926 9927 0
9928 9929 9930 0
9931 9932 9933 0
9934 9935 9936 0
9937 9938 9939 0
9940 9941 9942 0
9943 9944 9945 0
9946 9947 9948 0
9949 9950 9951 0
9952 9953 9954 0
9955 9956 9957 0
9958 9959 9960 0
9961 9962 9963 0
9964 9965 9966 0
9967 9968 9969 0
9970 9971 9972 0
9973 9974 9975 0
9976 9977 9978 0
9979 9980 9981 0
9982 9983 9984 0
9985 9986 9987 0
9988 9989 9990 0
9991 9992 9993 0
9994 9995 9996 0
9997 9998 9999 0
10000 10001 10002 0
10003 10004 10005 0
10006 10007 10008 0
10009 10010 10011 0
10012 10013 10014 0
10015 10016 10017 0
10018 10019 10020 0
10021 10022 10023 0
10024 10025 10026 0
10027 10028 10029 0
10030 10031 10032 0
10033 10034 10035 0
10036 10037 10038 0
10039 10040 10041 0
10042 10043 10044 0
10045 10046 10047 0
10048 10049 10050 0
10051 10052 10053 0
10054 10055 10056 0
10057 10058 10059 0
10060 10061 10062 0
10063 10064 10065 0
10066 10067 10068 0
10069 10070 10071 0
10072 10073 10074 0
10075 10076 10077 0
10078 10079 10080 0
10081 10082 10083 0
10084 10085 10086 0
10087 10088 10089 0
10090 10091 10092 0
10093 10094 10095 0
10096 10097 10098 0
10099 10100 10101 0
10102 10103 10104 0
10105 10106 10107 0
10108 10109 10110 0
10111 10112 10113 0
10114 10115 10116 0
10117 10118 10119 0
10120 10121 10122 0
10123 10124 10125 0
10126 10127 10128 0
10129 10130 10131 0
10132 10133 10134 0
10135 10136 10137 0
10138 10139 10140 0
10141 10142 10143 0
10144 10145 10146 0
10147 10148 10149 0
10150 10151 10152 0
10153 10154 10155 0
10156 10157 10158 0
10159 10160 10161 0
10162 10163 10164 0
10165 10166 10167 0
10168 10169 10170 0
10171 10172 10173 0
10174 10175 10176 0
10177 10178 10179 0
10180 10181 10182 0
10183 10184 10185 0
10186 10187 10188 0
10189 10190 10191 0
10192 10193 10194 0
10195 10196 10197 0
10198 10199 10200 0
10201 10202 10203 0
10204 10205 10206 0
10207 10208 10209 0
10210 10211 10212 0
10213 10214 10215 0
10216 10217 10218 0
10219 10220 10221 0
10222 10223 10224 0
10225 10226 10227 0
10228 10229 10230 0
10231 10232 10233 0
10234 10235 10236 0
10237 10238 10239 0
10240 10241 10242 0
10243 10244 10245 0
10246 10247 10248 0
10249 10250 10251 0
10252 10253 10254 0
10255 10256 10257 0
10258 10259 10260 0
10261 10262 10263 0
10264 10265 10266 0
10267 10268 10269 0
10270 10271 10272 0
10273 10274 10275 0
10276 10277 10278 0
10279 10280 10281 0
10282 10283 10284 0
10285 10286 10287 0
10288 10289 10290 0
10291 10292 10293 0
10294 10295 10296 0
10297 10298 10299 0
10300 10301 10302 0
10303 10304 10305 0
10306 10307 10308 0
10309 10310 10311 0
10312 10313 10314 0
10315 10316 10317 0
10318 10319 10320 0
10321 10322 10323 0
10324 10325 10326 0
10327 10328 10329 0
10330 10331 10332 0
10333 10334 10335 0
10336 10337 10338 0
10339 10340 10341 0
10342 10343 10344 0
10345 10346 10347 0
10348 10349 10350 0
10351 10352 10353 0
10354 10355 10356 0
10357 10358 10359 0
10360 10361 10362 0
10363 10364 10365 0
10366 10367 10368 0
10369 10370 10371 0
10372 10373 10374 0
10375 10376 10377 0
10378 10379 10380 0
10381 10382 10383 0
10384 10385 10386 0
10387 10388 10389 0
10390 10391 10392 0
10393 10394 10395 0
10396 10397 10398 0
10399 10400 10401 0
10402 10403 10404 0
10405 10406 10407 0
10408 10409 10410 0
10411 10412 10413 0
10414 10415 10416 0
10417 10418 10419 0
10420 10421 10422 0
10423 10424 10425 0
10426 10427 10428 0
10429 10430 10431 0
10432 10433 10434 0
10435 10436 10437 0
10438 10439 10440 0
10441 10442 10443 0
10444 10445 10446 0
10447 10448 10449 0
10450 10451 10452 0
10453 10454 10455 0
10456 10457 10458 0
10459 10460 10461 0
10462 10463 10464 0
10465 10466 10467 0
10468 10469 10470 0
10471 10472 10473 0
10474 10475 10476 0
10477 10478 10479 0
10480 10481 10482 0
10483 10484 10485 0
10486 10487 10488 0
10489 10490 10491 0
10492 10493 10494 0
10495 10496 10497 0
10498 10499 10500 0
10501 10502 10503 0
10504 10505 10506 0
10507 10508 10509 0
10510 10511 10512 0
10513 10514 10515 0
10516 10517 10518 0
10519 10520 10521 0
10522 10523 10524 0
10525 10526 10527 0
10528 10529 10530 0
10531 10532 10533 0
10534 10535 10536 0
10537 10538 10539 0
10540 10541 10542 0
10543 10544 10545 0
10546 10547 10548 0
10549 10550 10551 0
10552 10553 10554 0
10555 10556 10557 0
10558 10559 10560 0
10561 10562 10563 0
10564 10565 10566 0
10567 10568 10569 0
10570 10571 10572 0
10573 10574 10575 0
10576 10577 10578 0
10579 10580 10581 0
10582 10583 10584 0
10585 10586 10587 0
10588 10589 10590 0
10591 10592 10593 0
10594 10595 10596 0
10597 10598 10599 0
10600 10601 10602 0
10603 10604 10605 0
10606 10607 10608 0
10609 10610 10611 0
10612 10613 10614 0
10615 10616 10617 0
10618 10619 10620 0
10621 10622 10623 0
10624 10625 10626 0
10627 10628 10629 0
10630 10631 10632 0
10633 10634 10635 0
10636 10637 10638 0
10639 10640 10641 0
10642 10643 10644 0
10645 10646 10647 0
10648 10649 10650 0
10651 10652 10653 0
10654 10655 10656 0
10657 10658 10659 0
10660 10661 10662 0
10663 10664 10665 0
10666 10667 10668 0
10669 10670 10671 0
10672 10673 10674 0
10675 10676 10677 0
10678 10679 10680 0
10681 10682 10683 0
10684 10685 10686 0
10687 10688 10689 0
10690 10691 10692 0
10693 10694 10695 0
10696 10697 10698 0
10699 10700 10701 0
10702 10703 10704 0
10705 10706 10707 0
10708 10709 10710 0
10711 10712 10713 0
10714 10715 10716 0
10717 10718 10719 0
10720 10721 10722 0
10723 10724 10725 0
10726 10727 10728 0
10729 10730 10731 0
10732 10733 10734 0
10735 10736 10737 0
10738 10739 10740 0
10741 10742 10743 0
10744 10745 10746 0
10747 10748 10749 0
10750 10751 10752 0
10753 10754 10755 0
10756 10757 10758 0
10759 10760 10761 0
10762 10763 10764 0
10765 10766 10767 0
10768 10769 10770 0
10771 10772 10773 0
10774 10775 10776 0
10777 10778 10779 0
10780 10781 10782 0
10783 10784 10785 0
10786 10787 10788 0
10789 10790 10791 0
10792 10793 10794 0
10795 10796 10797 0
10798 10799 10800 0
10801 10802 10803 0
10804 10805 10806 0
10807 10808 10809 0
10810 10811 10812 0
10813 10814 10815 0
10816 10817 10818 0
10819 10820 10821 0
10822 10823 10824 0
10825 10826 10827 0
10828 10829 10830 0
10831 10832 10833 0
10834 10835 10836 0
10837 10838 10839 0
10840 10841 10842 0
10843 10844 10845 0
10846 10847 10848 0
10849 10850 10851 0
10852 10853 10854 0
10855 10856 10857 0
10858 10859 10860 0
10861 10862 10863 0
10864 10865 10866 0
10867 10868 10869 0
10870 10871 10872 0
10873 10874 10875 0
10876 10877 10878 0
10879 10880 10881 0
10882 10883 10884 0
10885 10886 10887 0
10888 10889 10890 0
10891 10892 10893 0
10894 10895 10896 0
10897 10898 10899 0
10900 10901 10902 0
10903 10904 10905 0
10906 10907 10908 0
10909 10910 10911 0
10912 10913 10914 0
10915 10916 10917 0
10918 10919 10920 0
10921 10922 10923 0
10924 10925 10926 0
10927 10928 10929 0
10930 10931 10932 0
10933 10934 10935 0
10936 10937 10938 0
10939 10940 10941 0
10942 10943 10944 0
10945 10946 10947 0
10948 10949 10950 0
10951 10952 10953 0
10954 10955 10956 0
10957 10958 10959 0
10960 10961 10962 0
10963 10964 10965 0
10966 10967 10968 0
10969 10970 10971 0
10972 10973 10974 0
10975 10976 10977 0
10978 10979 10980 0
10981 10982 10983 0
10984 10985 10986 0
10987 10988 10989 0
10990 10991 10992 0
10993 10994 10995 0
10996 10997 10998 0
10999 11000 11001 0
11002 11003 11004 0
11005 11006 11007 0
11008 11009 11010 0
11011 11012 11013 0
11014 11015 11016 0
11017 11018 11019 0
11020 11021 11022 0
11023 11024 11025 0
11026 11027 11028 0
11029 11030 11031 0
11032 11033 11034 0
11035 11036 11037 0
11038 11039 11040 0
11041 11042 11043 0
11044 11045 11046 0
11047 11048 11049 0
11050 11051 11052 0
11053 11054 11055 0
11056 11057 11058 0
11059 11060 11061 0
11062 11063 11064 0
11065 11066 11067 0
11068 11069 11070 0
11071 11072 11073 0
11074 11075 11076 0
11077 11078 11079 0
11080 11081 11082 0
11083 11084 11085 0
11086 11087 11088 0
11089 11090 11091 0
11092 11093 11094 0
11095 11096 11097 0
11098 11099 11100 0
11101 11102 11103 0
11104 11105 11106 0
11107 11108 11109 0
11110 11111 11112 0
11113 11114 11115 0
11116 11117 11118 0
11119 11120 11121 0
11122 11123 11124 0
11125 11126 11127 0
11128 11129 11130 0
11131 11132 11133 0
11134 11135 11136 0
11137 11138 11139 0
11140 11141 11142 0
11143 11144 11145 0
11146 11147 11148 0
11149 11150 11151 0
11152 11153 11154 0
11155 11156 11157 0
11158 11159 11160 0
11161 11162 11163 0
11164 11165 11166 0
11167 11168 11169 0
11170 11171 11172 0
11173 11174 11175 0
11176 11177 11178 0
11179 11180 11181 0
11182 11183 11184 0
11185 11186 11187 0
11188 11189 11190 0
11191 11192 11193 0
11194 11195 11196 0
11197 11198 11199 0
11200 11201 11202 0
11203 11204 11205 0
11206 11207 11208 0
11209 11210 11211 0
11212 11213 11214 0
11215 11216 11217 0
11218 11219 11220 0
11221 11222 11223 0
11224 11225 11226 0
11227 11228 11229 0
11230 11231 11232 0
11233 11234 11235 0
11236 11237 11238 0
11239 11240 11241 0
11242 11243 11244 0
11245 11246 11247 0
11248 11249 11250 0
11251 11252 11253 0
11254 11255 11256 0
11257 11258 11259 0
11260 11261 11262 0
11263 11264 11265 0
11266 11267 11268 0
11269 11270 11271 0
11272 11273 11274 0
11275 11276 11277 0
11278 11279 11280 0
11281 11282 11283 0
11284 11285 11286 0
11287 11288 11289 0
11290 11291 11292 0
11293 11294 11295 0
11296 11297 11298 0
11299 11300 11301 0
11302 11303 11304 0
11305 11306 11307 0
11308 11309 11310 0
11311 11312 11313 0
11314 11315 11316 0
11317 11318 11319 0
11320 11321 11322 0
11323 11324 11325 0
11326 11327 11328 0
11329 11330 11331 0
11332 11333 11334 0
11335 11336 11337 0
11338 11339 11340 0
11341 11342 11343 0
11344 11345 11346 0
11347 11348 11349 0
11350 11351 11352 0
11353 11354 11355 0
11356 11357 11358 0
11359 11360 11361 0
11362 11363 11364 0
11365 11366 11367 0
11368 11369 11370 0
11371 11372 11373 0
11374 11375 11376 0
11377 11378 11379 0
11380 11381 11382 0
11383 11384 11385 0
11386 11387 11388 0
11389 11390 11391 0
11392 11393 11394 0
11395 11396 11397 0
11398 11399 11400 0
11401 11402 11403 0
11404 11405 11406 0
11407 11408 11409 0
11410 11411 11412 0
11413 11414 11415 0
11416 11417 11418 0
11419 11420 11421 0
11422 11423 11424 0
11425 11426 11427 0
11428 11429 11430 0
11431 11432 11433 0
11434 11435 11436 0
11437 11438 11439 0
11440 11441 11442 0
11443 11444 11445 0
11446 11447 11448 0
11449 11450 11451 0
11452 11453 11454 0
11455 11456 11457 0
11458 11459 11460 0
11461 11462 11463 0
11464 11465 11466 0
11467 11468 11469 0
11470 11471 11472 0
11473 11474 11475 0
11476 11477 11478 0
11479 11480 11481 0
11482 11483 11484 0
11485 11486 11487 0
11488 11489 11490 0
11491 11492 11493 0
11494 11495 11496 0
11497 11498 11499 0
11500 11501 11502 0
11503 11504 11505 0
11506 11507 11508 0
11509 11510 11511 0
11512 11513 11514 0
11515 11516 11517 0
11518 11519 11520 0
11521 11522 11523 0
11524 11525 11526 0
11527 11528 11529 0
11530 11531 11532 0
11533 11534 11535 0
11536 11537 11538 0
11539 11540 11541 0
11542 11543 11544 0
11545 11546 11547 0
11548 11549 11550 0
11551 11552 11553 0
11554 11555 11556 0
11557 11558 11559 0
11560 11561 11562 0
11563 11564 11565 0
11566 11567 11568 0
11569 11570 11571 0
11572 11573 11574 0
11575 11576 11577 0
11578 11579 11580 0
11581 11582 11583 0
11584 11585 11586 0
11587 11588 11589 0
11590 11591 11592 0
11593 11594 11595 0
11596 11597 11598 0
11599 11600 11601 0
11602 11603 11604 0
11605 11606 11607 0
11608 11609 11610 0
11611 11612 11613 0
11614 11615 11616 0
11617 11618 11619 0
11620 11621 11622 0
11623 11624 11625 0
11626 11627 11628 0
11629 11630 11631 0
11632 11633 11634 0
11635 11636 11637 0
11638 11639 11640 0
11641 11642 11643 0
11644 11645 11646 0
11647 11648 11649 0
11650 11651 11652 0
11653 11654 11655 0
11656 11657 11658 0
11659 11660 11661 0
11662 11663 11664 0
11665 11666 11667 0
11668 11669 11670 0
11671 11672 11673 0
11674 11675 11676 0
11677 11678 11679 0
11680 11681 11682 0
11683 11684 11685 0
11686 11687 11688 0
11689 11690 11691 0
11692 11693 11694 0
11695 11696 11697 0
11698 11699 11700 0
11701 11702 11703 0
11704 11705 11706 0
11707 11708 11709 0
11710 11711 11712 0
11713 11714 11715 0
11716 11717 11718 0
11719 11720 11721 0
11722 11723 11724 0
11725 11726 11727 0
11728 11729 11730 0
11731 11732 11733 0
11734 11735 11736 0
11737 11738 11739 0
11740 11741 11742 0
11743 11744 11745 0
11746 11747 11748 0
11749 11750 11751 0
11752 11753 11754 0
11755 11756 11757 0
11758 11759 11760 0
11761 11762 11763 0
11764 11765 11766 0
11767 11768 11769 0
11770 11771 11772 0
11773 11774 11775 0
11776 11777 11778 0
11779 11780 11781 0
11782 11783 11784 0
11785 11786 11787 0
11788 11789 11790 0
11791 11792 11793 0
11794 11795 11796 0
11797 11798 11799 0
11800 11801 11802 0
11803 11804 11805 0
11806 11807 11808 0
11809 11810 11811 0
11812 11813 11814 0
11815 11816 11817 0
11818 11819 11820 0
11821 11822 11823 0
11824 11825 11826 0
11827 11828 11829 0
11830 11831 11832 0
11833 11834 11835 0
11836 11837 11838 0
11839 11840 11841 0
11842 11843 11844 0
11845 11846 11847 0
11848 11849 11850 0
11851 11852 11853 0
11854 11855 11856 0
11857 11858 11859 0
11860 11861 11862 0
11863 11864 11865 0
11866 11867 11868 0
11869 11870 11871 0
11872 11873 11874 0
11875 11876 11877 0
11878 11879 11880 0
11881 11882 11883 0
11884 11885 11886 0
11887 11888 11889 0
11890 11891 11892 0
11893 11894 11895 0
11896 11897 11898 0
11899 11900 11901 0
11902 11903 11904 0
11905 11906 11907 0
11908 11909 11910 0
11911 11912 11913 0
11914 11915 11916 0
11917 11918 11919 0
11920 11921 11922 0
11923 11924 11925 0
11926 11927 11928 0
11929 11930 11931 0
11932 11933 11934 0
11935 11936 11937 0
11938 11939 11940 0
11941 11942 11943 0
11944 11945 11946 0
11947 11948 11949 0
11950 11951 11952 0
11953 11954 11955 0
11956 11957 11958 0
11959 11960 11961 0
11962 11963 11964 0
11965 11966 11967 0
11968 11969 11970 0
11971 11972 11973 0
11974 11975 11976 0
11977 11978 11979 0
11980 11981 11982 0
11983 11984 11985 0
11986 11987 11988 0
11989 11990 11991 0
11992 11993 11994 0
11995 11996 11997 0
11998 11999 12000 0
12001 12002 12003 0
12004 12005 12006 0
12007 12008 12009 0
12010 12011 12012 0
12013 12014 12015 0
12016 12017 12018 0
12019 12020 12021 0
12022 12023 12024 0
12025 12026 12027 0
12028 12029 12030 0
12031 12032 12033 0
12034 12035 12036 0
12037 12038 12039 0
12040 12041 12042 0
12043 12044 12045 0
12046 12047 12048 0
12049 12050 12051 0
12052 12053 12054 0
12055 12056 12057 0
12058 12059 12060 0
12061 12062 12063 0
12064 12065 12066 0
12067 12068 12069 0
12070 12071 12072 0
12073 12074 12075 0
12076 12077 12078 0
12079 12080 12081 0
12082 12083 12084 0
12085 12086 12087 0
12088 12089 12090 0
12091 12092 12093 0
12094 12095 12096 0
12097 12098 12099 0
12100 12101 12102 0
12103 12104 12105 0
12106 12107 12108 0
12109 12110 12111 0
12112 12113 12114 0
12115 12116 12117 0
12118 12119 12120 0
12121 12122 12123 0
12124 12125 12126 0
12127 12128 12129 0
12130 12131 12132 0
12133 12134 12135 0
12136 12137 12138 0
12139 12140 12141 0
12142 12143 12144 0
12145 12146 12147 0
12148 12149 12150 0
12151 12152 12153 0
12154 12155 12156 0
12157 12158 12159 0
12160 12161 12162 0
12163 12164 12165 0
12166 12167 12168 0
12169 12170 12171 0
12172 12173 12174 0
12175 12176 12177 0
12178 12179 12180 0
12181 12182 12183 0
12184 12185 12186 0
12187 12188 12189 0
12190 12191 12192 0
12193 12194 12195 0
12196 12197 12198 0
12199 12200 12201 0
12202 12203 12204 0
12205 12206 12207 0
12208 12209 12210 0
12211 12212 12213 0
12214 12215 12216 0
12217 12218 12219 0
12220 12221 12222 0
12223 12224 12225 0
12226 12227 12228 0
12229 12230 12231 0
12232 12233 12234 0
12235 12236 12237 0
12238 12239 12240 0
12241 12242 12243 0
12244 12245 12246 0
12247 12248 12249 0
12250 12251 12252 0
12253 12254 12255 0
12256 12257 12258 0
12259 12260 12261 0
12262 12263 12264 0
12265 12266 12267 0
12268 12269 12270 0
12271 12272 12273 0
12274 12275 12276 0
12277 12278 12279 0
12280 12281 12282 0
12283 12284 12285 0
12286 12287 12288 0
-4 1 0
-5 2 0
-6 3 0
-7 1 0
-8 2 0
-9 3 0
-10 1 0
-11 2 0
-12 3 0
-13 1 0
-14 2 0
-15 3 0
-16 1 0
-17 2 0
-18 3 0
-19 1 0
-20 2 0
-21 3 0
-22 1 0
-23 2 0
-24 3 0
-25 1 0
-26 2 0
-27 3 0
-28 1 0
-29 2 0
-30 3 0
-31 1 0
-32 2 0
-33 3 0
-34 1 0
-35 2 0
-36 3 0
-37 1 0
-38 2 0
-39 3 0
-40 1 0
-41 2 0
-42 3 0
-43 1 0
-44 2 0
-45 3 0
-46 1 0
-47 2 0
-48 3 0
-49 1 0
-50 2 0
-51 3 0
-52 1 0
-53 2 0
-54 3 0
-55 1 0
-56 2 0
-57 3 0
-58 1 0
-59 2 0
-60 3 0
-61 1 0
-62 2 0
-63 3 0
-64 1 0
-65 2 0
-66 3 0
-67 1 0
-68 2 0
-69 3 0
-70 1 0
-71 2 0
-72 3 0
-73 1 0
-74 2 0
-75 3 0
-76 1 0
-77 2 0
-78 3 0
-79 1 0
-80 2 0
-81 3 0
-82 1 0
-83 2 0
-84 3 0
-85 1 0
-86 2 0
-87 3 0
-88 1 0
-89 2 0
-90 3 0
-91 1 0
-92 2 0
-93 3 0
-94 1 0
-95 2 0
-96 3 0
-97 1 0
-98 2 0
-99 3 0
-100 1 0
-101 2 0
-102 3 0
-103 1 0
-104 2 0
-105 3 0
-106 1 0
-107 2 0
-108 3 0
-109 1 0
-110 2 0
-111 3 0
-112 1 0
-113 2 0
-114 3 0
-115 1 0
-116 2 0
-117 3 0
-118 1 0
-119 2 0
-120 3 0
-121 1 0
-122 2 0
-123 3 0
-124 1 0
-125 2 0
-126 3 0
-127 1 0
-128 2 0
-129 3 0
-130 1 0
-131 2 0
-132 3 0
-133 1 0
-134 2 0
-135 3 0
-136 1 0
-137 2 0
-138 3 0
-139 1 0
-140 2 0
-141 3 0
-142 1 0
-143 2 0
-144 3 0
-145 1 0
-146 2 0
-147 3 0
-148 1 0
-149 2 0
-150 3 0
-151 1 0
-152 2 0
-153 3 0
-154 1 0
-155 2 0
-156 3 0
-157 1 0
-158 2 0
-159 3 0
-160 1 0
-161 2 0
-162 3 0
-163 1 0
-164 2 0
-165 3 0
-166 1 0
-167 2 0
-168 3 0
-169 1 0
-170 2 0
-171 3 0
-172 1 0
-173 2 0
-174 3 0
-175 1 0
-176 2 0
-177 3 0
-178 1 0
-179 2 0
-180 3 0
-181 1 0
-182 2 0
-183 3 0
-184 1 0
-185 2 0
-186 3 0
-187 1 0
-188 2 0
-189 3 0
-190 1 0
-191 2 0
-192 3 0
-193 1 0
-194 2 0
-195 3 0
-196 1 0
-197 2 0
-198 3 0
-199 1 0
-200 2 0
-201 3 0
-202 1 0
-203 2 0
-204 3 0
-205 1 0
-206 2 0
-207 3 0
-208 1 0
-209 2 0
-210 3 0
-211 1 0
-212 2 0
-213 3 0
-214 1 0
-215 2 0
-216 3 0
-217 1 0
-218 2 0
-219 3 0
-220 1 0
-221 2 0
-222 3 0
-223 1 0
-224 2 0
-225 3 0
-226 1 0
-227 2 0
-228 3 0
-229 1 0
-230 2 0
-231 3 0
-232 1 0
-233 2 0
-234 3 0
-235 1 0
-236 2 0
-237 3 0
-238 1 0
-239 2 0
-240 3 0
-241 1 0
-242 2 0
-243 3 0
-244 1 0
-245 2 0
-246 3 0
-247 1 0
-248 2 0
-249 3 0
-250 1 0
-251 2 0
-252 3 0
-253 1 0
-254 2 0
-255 3 0
-256 1 0
-257 2 0
-258 3 0
-259 1 0
-260 2 0
-261 3 0
-262 1 0
-263 2 0
-264 3 0
-265 1 0
-266 2 0
-267 3 0
-268 1 0
-269 2 0
-270 3 0
-271 1 0
-272 2 0
-273 3 0
-274 1 0
-275 2 0
-276 3 0
-277 1 0
-278 2 0
-279 3 0
-280 1 0
-281 2 0
-282 3 0
-283 1 0
-284 2 0
-285 3 0
-286 1 0
-287 2 0
-288 3 0
-289 1 0
-290 2 0
-291 3 0
-292 1 0
-293 2 0
-294 3 0
-295 1 0
-296 2 0
-297 3 0
-298 1 0
-299 2 0
-300 3 0
-301 1 0
-302 2 0
-303 3 0
-304 1 0
-305 2 0
-306 3 0
-307 1 0
-308 2 0
-309 3 0
-310 1 0
-311 2 0
-312 3 0
-313 1 0
-314 2 0
-315 3 0
-316 1 0
-317 2 0
-318 3 0
-319 1 0
-320 2 0
-321 3 0
-322 1 0
-323 2 0
-324 3 0
-325 1 0
-326 2 0
-327 3 0
-328 1 0
-329 2 0
-330 3 0
-331 1 0
-332 2 0
-333 3 0
-334 1 0
-335 2 0
-336 3 0
-337 1 0
-338 2 0
-339 3 0
-340 1 0
-341 2 0
-342 3 0
-343 1 0
-344 2 0
-345 3 0
-346 1 0
-347 2 0
-348 3 0
-349 1 0
-350 2 0
-351 3 0
-352 1 0
-353 2 0
-354 3 0
-355 1 0
-356 2 0
-357 3 0
-358 1 0
-359 2 0
-360 3 0
-361 1 0
-362 2 0
-363 3 0
-364 1 0
-365 2 0
-366 3 0
-367 1 0
-368 2 0
-369 3 0
-370 1 0
-371 2 0
-372 3 0
-373 1 0
-374 2 0
-375 3 0
-376 1 0
-377 2 0
-378 3 0
-379 1 0
-380 2 0
-381 3 0
-382 1 0
-383 2 0
-384 3 0
-385 1 0
-386 2 0
-387 3 0
-388 1 0
-389 2 0
-390 3 0
-391 1 0
-392 2 0
-393 3 0
-394 1 0
-395 2 0
-396 3 0
-397 1 0
-398 2 0
-399 3 0
-400 1 0
-401 2 0
-402 3 0
-403 1 0
-404 2 0
-405 3 0
-406 1 0
-407 2 0
-408 3 0
-409 1 0
-410 2 0
-411 3 0
-412 1 0
-413 2 0
-414 3 0
-415 1 0
-416 2 0
-417 3 0
-418 1 0
-419 2 0
-420 3 0
-421 1 0
-422 2 0
-423 3 0
-424 1 0
-425 2 0
-426 3 0
-427 1 0
-428 2 0
-429 3 0
-430 1 0
-431 2 0
-432 3 0
-433 1 0
-434 2 0
-435 3 0
-436 1 0
-437 2 0
-438 3 0
-439 1 0
-440 2 0
-441 3 0
-442 1 0
-443 2 0
-444 3 0
-445 1 0
-446 2 0
-447 3 0
-448 1 0
-449 2 0
-450 3 0
-451 1 0
-452 2 0
-453 3 0
-454 1 0
-455 2 0
-456 3 0
-457 1 0
-458 2 0
-459 3 0
-460 1 0
-461 2 0
-462 3 0
-463 1 0
-464 2 0
-465 3 0
-466 1 0
-467 2 0
-468 3 0
-469 1 0
-470 2 0
-471 3 0
-472 1 0
-473 2 0
-474 3 0
-475 1 0
-476 2 0
-477 3 0
-478 1 0
-479 2 0
-480 3 0
-481 1 0
-482 2 0
-483 3 0
-484 1 0
-485 2 0
-486 3 0
-487 1 0
-488 2 0
-489 3 0
-490 1 0
-491 2 0
-492 3 0
-493 1 0
-494 2 0
-495 3 0
-496 1 0
-497 2 0
-498 3 0
-499 1 0
-500 2 0
-501 3 0
-502 1 0
-503 2 0
-504 3 0
-505 1 0
-506 2 0
-507 3 0
-508 1 0
-509 2 0
-510 3 0
-511 1 0
-512 2 0
-513 3 0
-514 1 0
-515 2 0
-516 3 0
-517 1 0
-518 2 0
-519 3 0
-520 1 0
-521 2 0
-522 3 0
-523 1 0
-524 2 0
-525 3 0
-526 1 0
-527 2 0
-528 3 0
-529 1 0
-530 2 0
-531 3 0
-532 1 0
-533 2 0
-534 3 0
-535 1 0
-536 2 0
-537 3 0
-538 1 0
-539 2 0
-540 3 0
-541 1 0
-542 2 0
-543 3 0
-544 1 0
-545 2 0
-546 3 0
-547 1 0
-548 2 0
-549 3 0
-550 1 0
-551 2 0
-552 3 0
-553 1 0
-554 2 0
-555 3 0
-556 1 0
-557 2 0
-558 3 0
-559 1 0
-560 2 0
-561 3 0
-562 1 0
-563 2 0
-564 3 0
-565 1 0
-566 2 0
-567 3 0
-568 1 0
-569 2 0
-570 3 0
-571 1 0
-572 2 0
-573 3 0
-574 1 0
-575 2 0
-576 3 0
-577 1 0
-578 2 0
-579 3 0
-580 1 0
-581 2 0
-582 3 0
-583 1 0
-584 2 0
-585 3 0
-586 1 0
-587 2 0
-588 3 0
-589 1 0
-590 2 0
-591 3 0
-592 1 0
-593 2 0
-594 3 0
-595 1 0
-596 2 0
-597 3 0
-598 1 0
-599 2 0
-600 3 0
-601 1 0
-602 2 0
-603 3 0
-604 1 0
-605 2 0
-606 3 0
-607 1 0
-608 2 0
-609 3 0
-610 1 0
-611 2 0
-612 3 0
-613 1 0
-614 2 0
-615 3 0
-616 1 0
-617 2 0
-618 3 0
-619 1 0
-620 2 0
-621 3 0
-622 1 0
-623 2 0
-624 3 0
-625 1 0
-626 2 0
-627 3 0
-628 1 0
-629 2 0
-630 3 0
-631 1 0
-632 2 0
-633 3 0
-634 1 0
-635 2 0
-636 3 0
-637 1 0
-638 2 0
-639 3 0
-640 1 0
-641 2 0
-642 3 0
-643 1 0
-644 2 0
-645 3 0
-646 1 0
-647 2 0
-648 3 0
-649 1 0
-650 2 0
-651 3 0
-652 1 0
-653 2 0
-654 3 0
-655 1 0
-656 2 0
-657 3 0
-658 1 0
-659 2 0
-660 3 0
-661 1 0
-662 2 0
-663 3 0
-664 1 0
-665 2 0
-666 3 0
-667 1 0
-668 2 0
-669 3 0
-670 1 0
-671 2 0
-672 3 0
-673 1 0
-674 2 0
-675 3 0
-676 1 0
-677 2 0
-678 3 0
-679 1 0
-680 2 0
-681 3 0
-682 1 0
-683 2 0
-684 3 0
-685 1 0
-686 2 0
-687 3 0
-688 1 0
-689 2 0
-690 3 0
-691 1 0
-692 2 0
-693 3 0
-694 1 0
-695 2 0
-696 3 0
-697 1 0
-698 2 0
-699 3 0
-700 1 0
-701 2 0
-702 3 0
-703 1 0
-704 2 0
-705 3 0
-706 1 0
-707 2 0
-708 3 0
-709 1 0
-710 2 0
-711 3 0
-712 1 0
-713 2 0
-714 3 0
-715 1 0
-716 2 0
-717 3 0
-718 1 0
-719 2 0
-720 3 0
-721 1 0
-722 2 0
-723 3 0
-724 1 0
-725 2 0
-726 3 0
-727 1 0
-728 2 0
-729 3 0
-730 1 0
-731 2 0
-732 3 0
-733 1 0
-734 2 0
-735 3 0
-736 1 0
-737 2 0
-738 3 0
-739 1 0
-740 2 0
-741 3 0
-742 1 0
-743 2 0
-744 3 0
-745 1 0
-746 2 0
-747 3 0
-748 1 0
-749 2 0
-750 3 0
-751 1 0
-752 2 0
-753 3 0
-754 1 0
-755 2 0
-756 3 0
-757 1 0
-758 2 0
-759 3 0
-760 1 0
-761 2 0
-762 3 0
-763 1 0
-764 2 0
-765 3 0
-766 1 0
-767 2 0
-768 3 0
-769 1 0
-770 2 0
-771 3 0
-772 1 0
-773 2 0
-774 3 0
-775 1 0
-776 2 0
-777 3 0
-778 1 0
-779 2 0
-780 3 0
-781 1 0
-782 2 0
-783 3 0
-784 1 0
-785 2 0
-786 3 0
-787 1 0
-788 2 0
-789 3 0
-790 1 0
-791 2 0
-792 3 0
-793 1 0
-794 2 0
-795 3 0
-796 1 0
-797 2 0
-798 3 0
-799 1 0
-800 2 0
-801 3 0
-802 1 0
-803 2 0
-804 3 0
-805 1 0
-806 2 0
-807 3 0
-808 1 0
-809 2 0
-810 3 0
-811 1 0
-812 2 0
-813 3 0
-814 1 0
-815 2 0
-816 3 0
-817 1 0
-818 2 0
-819 3 0
-820 1 0
-821 2 0
-822 3 0
-823 1 0
-824 2 0
-825 3 0
-826 1 0
-827 2 0
-828 3 0
-829 1 0
-830 2 0
-831 3 0
-832 1 0
-833 2 0
-834 3 0
-835 1 0
-836 2 0
-837 3 0
-838 1 0
-839 2 0
-840 3 0
-841 1 0
-842 2 0
-843 3 0
-844 1 0
-845 2 0
-846 3 0
-847 1 0
-848 2 0
-849 3 0
-850 1 0
-851 2 0
-852 3 0
-853 1 0
-854 2 0
-855 3 0
-856 1 0
-857 2 0
-858 3 0
-859 1 0
-860 2 0
-861 3 0
-862 1 0
-863 2 0
-864 3 0
-865 1 0
-866 2 0
-867 3 0
-868 1 0
-869 2 0
-870 3 0
-871 1 0
-872 2 0
-873 3 0
-874 1 0
-875 2 0
-876 3 0
-877 1 0
-878 2 0
-879 3 0
-880 1 0
-881 2 0
-882 3 0
-883 1 0
-884 2 0
-885 3 0
-886 1 0
-887 2 0
-888 3 0
-889 1 0
-890 2 0
-891 3 0
-892 1 0
-893 2 0
-894 3 0
-895 1 0
-896 2 0
-897 3 0
-898 1 0
-899 2 0
-900 3 0
-901 1 0
-902 2 0
-903 3 0
-904 1 0
-905 2 0
-906 3 0
-907 1 0
-908 2 0
-909 3 0
-910 1 0
-911 2 0
-912 3 0
-913 1 0
-914 2 0
-915 3 0
-916 1 0
-917 2 0
-918 3 0
-919 1 0
-920 2 0
-921 3 0
-922 1 0
-923 2 0
-924 3 0
-925 1 0
-926 2 0
-927 3 0
-928 1 0
-929 2 0
-930 3 0
-931 1 0
-932 2 0
-933 3 0
-934 1 0
-935 2 0
-936 3 0
-937 1 0
-938 2 0
-939 3 0
-940 1 0
-941 2 0
-942 3 0
-943 1 0
-944 2 0
-945 3 0
-946 1 0
-947 2 0
-948 3 0
-949 1 0
-950 2 0
-951 3 0
-952 1 0
-953 2 0
-954 3 0
-955 1 0
-956 2 0
-957 3 0
-958 1 0
-959 2 0
-960 3 0
-961 1 0
-962 2 0
-963 3 0
-964 1 0
-965 2 0
-966 3 0
-967 1 0
-968 2 0
-969 3 0
-970 1 0
-971 2 0
-972 3 0
-973 1 0
-974 2 0
-975 3 0
-976 1 0
-977 2 0
-978 3 0
-979 1 0
-980 2 0
-981 3 0
-982 1 0
-983 2 0
-984 3 0
-985 1 0
-986 2 0
-987 3 0
-988 1 0
-989 2 0
-990 3 0
-991 1 0
-992 2 0
-993 3 0
-994 1 0
-995 2 0
-996 3 0
-997 1 0
-998 2 0
-999 3 0
-1000 1 0
-1001 2 0
-1002 3 0
-1003 1 0
-1004 2 0
-1005 3 0
-1006 1 0
-1007 2 0
-1008 3 0
-1009 1 0
-1010 2 0
-1011 3 0
-1012 1 0
-1013 2 0
-1014 3 0
-1015 1 0
-1016 2 0
-1017 3 0
-1018 1 0
-1019 2 0
-1020 3 0
-1021 1 0
-1022 2 0
-1023 3 0
-1024 1 0
-1025 2 0
-1026 3 0
-1027 1 0
-1028 2 0
-1029 3 0
-1030 1 0
-1031 2 0
-1032 3 0
-1033 1 0
-1034 2 0
-1035 3 0
-1036 1 0
-1037 2 0
-1038 3 0
-1039 1 0
-1040 2 0
-1041 3 0
-1042 1 0
-1043 2 0
-1044 3 0
-1045 1 0
-1046 2 0
-1047 3 0
-1048 1 0
-1049 2 0
-1050 3 0
-1051 1 0
-1052 2 0
-1053 3 0
-1054 1 0
-1055 2 0
-1056 3 0
-1057 1 0
-1058 2 0
-1059 3 0
-1060 1 0
-1061 2 0
-1062 3 0
-1063 1 0
-1064 2 0
-1065 3 0
-1066 1 0
-1067 2 0
-1068 3 0
-1069 1 0
-1070 2 0
-1071 3 0
-1072 1 0
-1073 2 0
-1074 3 0
-1075 1 0
-1076 2 0
-1077 3 0
-1078 1 0
-1079 2 0
-1080 3 0
-1081 1 0
-1082 2 0
-1083 3 0
-1084 1 0
-1085 2 0
-1086 3 0
-1087 1 0
-1088 2 0
-1089 3 0
-1090 1 0
-1091 2 0
-1092 3 0
-1093 1 0
-1094 2 0
-1095 3 0
-1096 1 0
-1097 2 0
-1098 3 0
-1099 1 0
-1100 2 0
-1101 3 0
-1102 1 0
-1103 2 0
-1104 3 0
-1105 1 0
-1106 2 0
-1107 3 0
-1108 1 0
-1109 2 0
-1110 3 0
-1111 1 0
-1112 2 0
-1113 3 0
-1114 1 0
-1115 2 0
-1116 3 0
-1117 1 0
-1118 2 0
-1119 3 0
-1120 1 0
-1121 2 0
-1122 3 0
-1123 1 0
-1124 2 0
-1125 3 0
-1126 1 0
-1127 2 0
-1128 3 0
-1129 1 0
-1130 2 0
-1131 3 0
-1132 1 0
-1133 2 0
-1134 3 0
-1135 1 0
-1136 2 0
-1137 3 0
-1138 1 0
-1139 2 0
-1140 3 0
-1141 1 0
-1142 2 0
-1143 3 0
-1144 1 0
-1145 2 0
-1146 3 0
-1147 1 0
-1148 2 0
-1149 3 0
-1150 1 0
-1151 2 0
-1152 3 0
-1153 1 0
-1154 2 0
-1155 3 0
-1156 1 0
-1157 2 0
-1158 3 0
-1159 1 0
-1160 2 0
-1161 3 0
-1162 1 0
-1163 2 0
-1164 3 0
-1165 1 0
-1166 2 0
-1167 3 0
-1168 1 0
-1169 2 0
-1170 3 0
-1171 1 0
-1172 2 0
-1173 3 0
-1174 1 0
-1175 2 0
-1176 3 0
-1177 1 0
-1178 2 0
-1179 3 0
-1180 1 0
-1181 2 0
-1182 3 0
-1183 1 0
-1184 2 0
-1185 3 0
-1186 1 0
-1187 2 0
-1188 3 0
-1189 1 0
-1190 2 0
-1191 3 0
-1192 1 0
-1193 2 0
-1194 3 0
-1195 1 0
-1196 2 0
-1197 3 0
-1198 1 0
-1199 2 0
-1200 3 0
-1201 1 0
-1202 2 0
-1203 3 0
-1204 1 0
-1205 2 0
-1206 3 0
-1207 1 0
-1208 2 0
-1209 3 0
-1210 1 0
-1211 2 0
-1212 3 0
-1213 1 0
-1214 2 0
-1215 3 0
-1216 1 0
-1217 2 0
-1218 3 0
-1219 1 0
-1220 2 0
-1221 3 0
-1222 1 0
-1223 2 0
-1224 3 0
-1225 1 0
-1226 2 0
-1227 3 0
-1228 1 0
-1229 2 0
-1230 3 0
-1231 1 0
-1232 2 0
-1233 3 0
-1234 1 0
-1235 2 0
-1236 3 0
-1237 1 0
-1238 2 0
-1239 3 0
-1240 1 0
-1241 2 0
-1242 3 0
-1243 1 0
-1244 2 0
-1245 3 0
-1246 1 0
-1247 2 0
-1248 3 0
-1249 1 0
-1250 2 0
-1251 3 0
-1252 1 0
-1253 2 0
-1254 3 0
-1255 1 0
-1256 2 0
-1257 3 0
-1258 1 0
-1259 2 0
-1260 3 0
-1261 1 0
-1262 2 0
-1263 3 0
-1264 1 0
-1265 2 0
-1266 3 0
-1267 1 0
-1268 2 0
-1269 3 0
-1270 1 0
-1271 2 0
-1272 3 0
-1273 1 0
-1274 2 0
-1275 3 0
-1276 1 0
-1277 2 0
-1278 3 0
-1279 1 0
-1280 2 0
-1281 3 0
-1282 1 0
-1283 2 0
-1284 3 0
-1285 1 0
-1286 2 0
-1287 3 0
-1288 1 0
-1289 2 0
-1290 3 0
-1291 1 0
-1292 2 0
-1293 3 0
-1294 1 0
-1295 2 0
-1296 3 0
-1297 1 0
-1298 2 0
-1299 3 0
-1300 1 0
-1301 2 0
-1302 3 0
-1303 1 0
-1304 2 0
-1305 3 0
-1306 1 0
-1307 2 0
-1308 3 0
-1309 1 0
-1310 2 0
-1311 3 0
-1312 1 0
-1313 2 0
-1314 3 0
-1315 1 0
-1316 2 0
-1317 3 0
-1318 1 0
-1319 2 0
-1320 3 0
-1321 1 0
-1322 2 0
-1323 3 0
-1324 1 0
-1325 2 0
-1326 3 0
-1327 1 0
-1328 2 0
-1329 3 0
-1330 1 0
-1331 2 0
-1332 3 0
-1333 1 0
-1334 2 0
-1335 3 0
-1336 1 0
-1337 2 0
-1338 3 0
-1339 1 0
-1340 2 0
-1341 3 0
-1342 1 0
-1343 2 0
-1344 3 0
-1345 1 0
-1346 2 0
-1347 3 0
-1348 1 0
-1349 2 0
-1350 3 0
-1351 1 0
-1352 2 0
-1353 3 0
-1354 1 0
-1355 2 0
-1356 3 0
-1357 1 0
-1358 2 0
-1359 3 0
-1360 1 0
-1361 2 0
-1362 3 0
-1363 1 0
-1364 2 0
-1365 3 0
-1366 1 0
-1367 2 0
-1368 3 0
-1369 1 0
-1370 2 0
-1371 3 0
-1372 1 0
-1373 2 0
-1374 3 0
-1375 1 0
-1376 2 0
-1377 3 0
-1378 1 0
-1379 2 0
-1380 3 0
-1381 1 0
-1382 2 0
-1383 3 0
-1384 1 0
-1385 2 0
-1386 3 0
-1387 1 0
-1388 2 0
-1389 3 0
-1390 1 0
-1391 2 0
-1392 3 0
-1393 1 0
-1394 2 0
-1395 3 0
-1396 1 0
-1397 2 0
-1398 3 0
-1399 1 0
-1400 2 0
-1401 3 0
-1402 1 0
-1403 2 0
-1404 3 0
-1405 1 0
-1406 2 0
-1407 3 0
-1408 1 0
-1409 2 0
-1410 3 0
-1411 1 0
-1412 2 0
-1413 3 0
-1414 1 0
-1415 2 0
-1416 3 0
-1417 1 0
-1418 2 0
-1419 3 0
-1420 1 0
-1421 2 0
-1422 3 0
-1423 1 0
-1424 2 0
-1425 3 0
-1426 1 0
-1427 2 0
-1428 3 0
-1429 1 0
-1430 2 0
-1431 3 0
-1432 1 0
-1433 2 0
-1434 3 0
-1435 1 0
-1436 2 0
-1437 3 0
-1438 1 0
-1439 2 0
-1440 3 0
-1441 1 0
-1442 2 0
-1443 3 0
-1444 1 0
-1445 2 0
-1446 3 0
-1447 1 0
-1448 2 0
-1449 3 0
-1450 1 0
-1451 2 0
-1452 3 0
-1453 1 0
-1454 2 0
-1455 3 0
-1456 1 0
-1457 2 0
-1458 3 0
-1459 1 0
-1460 2 0
-1461 3 0
-1462 1 0
-1463 2 0
-1464 3 0
-1465 1 0
-1466 2 0
-1467 3 0
-1468 1 0
-1469 2 0
-1470 3 0
-1471 1 0
-1472 2 0
-1473 3 0
-1474 1 0
-1475 2 0
-1476 3 0
-1477 1 0
-1478 2 0
-1479 3 0
-1480 1 0
-1481 2 0
-1482 3 0
-1483 1 0
-1484 2 0
-1485 3 0
-1486 1 0
-1487 2 0
-1488 3 0
-1489 1 0
-1490 2 0
-1491 3 0
-1492 1 0
-1493 2 0
-1494 3 0
-1495 1 0
-1496 2 0
-1497 3 0
-1498 1 0
-1499 2 0
-1500 3 0
-1501 1 0
-1502 2 0
-1503 3 0
-1504 1 0
-1505 2 0
-1506 3 0
-1507 1 0
-1508 2 0
-1509 3 0
-1510 1 0
-1511 2 0
-1512 3 0
-1513 1 0
-1514 2 0
-1515 3 0
-1516 1 0
-1517 2 0
-1518 3 0
-1519 1 0
-1520 2 0
-1521 3 0
-1522 1 0
-1523 2 0
-1524 3 0
-1525 1 0
-1526 2 0
-1527 3 0
-1528 1 0
-1529 2 0
-1530 3 0
-1531 1 0
-1532 2 0
-1533 3 0
-1534 1 0
-1535 2 0
-1536 3 0
-1537 1 0
-1538 2 0
-1539 3 0
-1540 1 0
-1541 2 0
-1542 3 0
-1543 1 0
-1544 2 0
-1545 3 0
-1546 1 0
-1547 2 0
-1548 3 0
-1549 1 0
-1550 2 0
-1551 3 0
-1552 1 0
-1553 2 0
-1554 3 0
-1555 1 0
-1556 2 0
-1557 3 0
-1558 1 0
-1559 2 0
-1560 3 0
-1561 1 0
-1562 2 0
-1563 3 0
-1564 1 0
-1565 2 0
-1566 3 0
-1567 1 0
-1568 2 0
-1569 3 0
-1570 1 0
-1571 2 0
-1572 3 0
-1573 1 0
-1574 2 0
-1575 3 0
-1576 1 0
-1577 2 0
-1578 3 0
-1579 1 0
-1580 2 0
-1581 3 0
-1582 1 0
-1583 2 0
-1584 3 0
-1585 1 0
-1586 2 0
-1587 3 0
-1588 1 0
-1589 2 0
-1590 3 0
-1591 1 0
-1592 2 0
-1593 3 0
-1594 1 0
-1595 2 0
-1596 3 0
-1597 1 0
-1598 2 0
-1599 3 0
-1600 1 0
-1601 2 0
-1602 3 0
-1603 1 0
-1604 2 0
-1605 3 0
-1606 1 0
-1607 2 0
-1608 3 0
-1609 1 0
-1610 2 0
-1611 3 0
-1612 1 0
-1613 2 0
-1614 3 0
-1615 1 0
-1616 2 0
-1617 3 0
-1618 1 0
-1619 2 0
-1620 3 0
-1621 1 0
-1622 2 0
-1623 3 0
-1624 1 0
-1625 2 0
-1626 3 0
-1627 1 0
-1628 2 0
-1629 3 0
-1630 1 0
-1631 2 0
-1632 3 0
-1633 1 0
-1634 2 0
-1635 3 0
-1636 1 0
-1637 2 0
-1638 3 0
-1639 1 0
-1640 2 0
-1641 3 0
-1642 1 0
-1643 2 0
-1644 3 0
-1645 1 0
-1646 2 0
-1647 3 0
-1648 1 0
-1649 2 0
-1650 3 0
-1651 1 0
-1652 2 0
-1653 3 0
-1654 1 0
-1655 2 0
-1656 3 0
-1657 1 0
-1658 2 0
-1659 3 0
-1660 1 0
-1661 2 0
-1662 3 0
-1663 1 0
-1664 2 0
-1665 3 0
-1666 1 0
-1667 2 0
-1668 3 0
-1669 1 0
-1670 2 0
-1671 3 0
-1672 1 0
-1673 2 0
-1674 3 0
-1675 1 0
-1676 2 0
-1677 3 0
-1678 1 0
-1679 2 0
-1680 3 0
-1681 1 0
-1682 2 0
-1683 3 0
-1684 1 0
-1685 2 0
-1686 3 0
-1687 1 0
-1688 2 0
-1689 3 0
-1690 1 0
-1691 2 0
-1692 3 0
-1693 1 0
-1694 2 0
-1695 3 0
-1696 1 0
-1697 2 0
-1698 3 0
-1699 1 0
-1700 2 0
-1701 3 0
-1702 1 0
-1703 2 0
-1704 3 0
-1705 1 0
-1706 2 0
-1707 3 0
-1708 1 0
-1709 2 0
-1710 3 0
-1711 1 0
-1712 2 0
-1713 3 0
-1714 1 0
-1715 2 0
-1716 3 0
-1717 1 0
-1718 2 0
-1719 3 0
-1720 1 0
-1721 2 0
-1722 3 0
-1723 1 0
-1724 2 0
-1725 3 0
-1726 1 0
-1727 2 0
-1728 3 0
-1729 1 0
-1730 2 0
-1731 3 0
-1732 1 0
-1733 2 0
-1734 3 0
-1735 1 0
-1736 2 0
-1737 3 0
-1738 1 0
-1739 2 0
-1740 3 0
-1741 1 0
-1742 2 0
-1743 3 0
-1744 1 0
-1745 2 0
-1746 3 0
-1747 1 0
-1748 2 0
-1749 3 0
-1750 1 0
-1751 2 0
-1752 3 0
-1753 1 0
-1754 2 0
-1755 3 0
-1756 1 0
-1757 2 0
-1758 3 0
-1759 1 0
-1760 2 0
-1761 3 0
-1762 1 0
-1763 2 0
-1764 3 0
-1765 1 0
-1766 2 0
-1767 3 0
-1768 1 0
-1769 2 0
-1770 3 0
-1771 1 0
-1772 2 0
-1773 3 0
-1774 1 0
-1775 2 0
-1776 3 0
-1777 1 0
-1778 2 0
-1779 3 0
-1780 1 0
-1781 2 0
-1782 3 0
-1783 1 0
-1784 2 0
-1785 3 0
-1786 1 0
-1787 2 0
-1788 3 0
-1789 1 0
-1790 2 0
-1791 3 0
-1792 1 0
-1793 2 0
-1794 3 0
-1795 1 0
-1796 2 0
-1797 3 0
-1798 1 0
-1799 2 0
-1800 3 0
-1801 1 0
-1802 2 0
-1803 3 0
-1804 1 0
-1805 2 0
-1806 3 0
-1807 1 0
-1808 2 0
-1809 3 0
-1810 1 0
-1811 2 0
-1812 3 0
-1813 1 0
-1814 2 0
-1815 3 0
-1816 1 0
-1817 2 0
-1818 3 0
-1819 1 0
-1820 2 0
-1821 3 0
-1822 1 0
-1823 2 0
-1824 3 0
-1825 1 0
-1826 2 0
-1827 3 0
-1828 1 0
-1829 2 0
-1830 3 0
-1831 1 0
-1832 2 0
-1833 3 0
-1834 1 0
-1835 2 0
-1836 3 0
-1837 1 0
-1838 2 0
-1839 3 0
-1840 1 0
-1841 2 0
-1842 3 0
-1843 1 0
-1844 2 0
-1845 3 0
-1846 1 0
-1847 2 0
-1848 3 0
-1849 1 0
-1850 2 0
-1851 3 0
-1852 1 0
-1853 2 0
-1854 3 0
-1855 1 0
-1856 2 0
-1857 3 0
-1858 1 0
-1859 2 0
-1860 3 0
-1861 1 0
-1862 2 0
-1863 3 0
-1864 1 0
-1865 2 0
-1866 3 0
-1867 1 0
-1868 2 0
-1869 3 0
-1870 1 0
-1871 2 0
-1872 3 0
-1873 1 0
-1874 2 0
-1875 3 0
-1876 1 0
-1877 2 0
-1878 3 0
-1879 1 0
-1880 2 0
-1881 3 0
-1882 1 0
-1883 2 0
-1884 3 0
-1885 1 0
-1886 2 0
-1887 3 0
-1888 1 0
-1889 2 0
-1890 3 0
-1891 1 0
-1892 2 0
-1893 3 0
-1894 1 0
-1895 2 0
-1896 3 0
-1897 1 0
-1898 2 0
-1899 3 0
-1900 1 0
-1901 2 0
-1902 3 0
-1903 1 0
-1904 2 0
-1905 3 0
-1906 1 0
-1907 2 0
-1908 3 0
-1909 1 0
-1910 2 0
-1911 3 0
-1912 1 0
-1913 2 0
-1914 3 0
-1915 1 0
-1916 2 0
-1917 3 0
-1918 1 0
-1919 2 0
-1920 3 0
-1921 1 0
-1922 2 0
-1923 3 0
-1924 1 0
-1925 2 0
-1926 3 0
-1927 1 0
-1928 2 0
-1929 3 0
-1930 1 0
-1931 2 0
-1932 3 0
-1933 1 0
-1934 2 0
-1935 3 0
-1936 1 0
-1937 2 0
-1938 3 0
-1939 1 0
-1940 2 0
-1941 3 0
-1942 1 0
-1943 2 0
-1944 3 0
-1945 1 0
-1946 2 0
-1947 3 0
-1948 1 0
-1949 2 0
-1950 3 0
-1951 1 0
-1952 2 0
-1953 3 0
-1954 1 0
-1955 2 0
-1956 3 0
-1957 1 0
-1958 2 0
-1959 3 0
-1960 1 0
-1961 2 0
-1962 3 0
-1963 1 0
-1964 2 0
-1965 3 0
-1966 1 0
-1967 2 0
-1968 3 0
-1969 1 0
-1970 2 0
-1971 3 0
-1972 1 0
-1973 2 0
-1974 3 0
-1975 1 0
-1976 2 0
-1977 3 0
-1978 1 0
-1979 2 0
-1980 3 0
-1981 1 0
-1982 2 0
-1983 3 0
-1984 1 0
-1985 2 0
-1986 3 0
-1987 1 0
-1988 2 0
-1989 3 0
-1990 1 0
-1991 2 0
-1992 3 0
-1993 1 0
-1994 2 0
-1995 3 0
-1996 1 0
-1997 2 0
-1998 3 0
-1999 1 0
-2000 2 0
-2001 3 0
-2002 1 0
-2003 2 0
-2004 3 0
-2005 1 0
-2006 2 0
-2007 3 0
-2008 1 0
-2009 2 0
-2010 3 0
-2011 1 0
-2012 2 0
-2013 3 0
-2014 1 0
-2015 2 0
-2016 3 0
-2017 1 0
-2018 2 0
-2019 3 0
-2020 1 0
-2021 2 0
-2022 3 0
-2023 1 0
-2024 2 0
-2025 3 0
-2026 1 0
-2027 2 0
-2028 3 0
-2029 1 0
-2030 2 0
-2031 3 0
-2032 1 0
-2033 2 0
-2034 3 0
-2035 1 0
-2036 2 0
-2037 3 0
-2038 1 0
-2039 2 0
-2040 3 0
-2041 1 0
-2042 2 0
-2043 3 0
-2044 1 0
-2045 2 0
-2046 3 0
-2047 1 0
-2048 2 0
-2049 3 0
-2050 1 0
-2051 2 0
-2052 3 0
-2053 1 0
-2054 2 0
-2055 3 0
-2056 1 0
-2057 2 0
-2058 3 0
-2059 1 0
-2060 2 0
-2061 3 0
-2062 1 0
-2063 2 0
-2064 3 0
-2065 1 0
-2066 2 0
-2067 3 0
-2068 1 0
-2069 2 0
-2070 3 0
-2071 1 0
-2072 2 0
-2073 3 0
-2074 1 0
-2075 2 0
-2076 3 0
-2077 1 0
-2078 2 0
-2079 3 0
-2080 1 0
-2081 2 0
-2082 3 0
-2083 1 0
-2084 2 0
-2085 3 0
-2086 1 0
-2087 2 0
-2088 3 0
-2089 1 0
-2090 2 0
-2091 3 0
-2092 1 0
-2093 2 0
-2094 3 0
-2095 1 0
-2096 2 0
-2097 3 0
-2098 1 0
-2099 2 0
-2100 3 0
-2101 1 0
-2102 2 0
-2103 3 0
-2104 1 0
-2105 2 0
-2106 3 0
-2107 1 0
-2108 2 0
-2109 3 0
-2110 1 0
-2111 2 0
-2112 3 0
-2113 1 0
-2114 2 0
-2115 3 0
-2116 1 0
-2117 2 0
-2118 3 0
-2119 1 0
-2120 2 0
-2121 3 0
-2122 1 0
-2123 2 0
-2124 3 0
-2125 1 0
-2126 2 0
-2127 3 0
-2128 1 0
-2129 2 0
-2130 3 0
-2131 1 0
-2132 2 0
-2133 3 0
-2134 1 0
-2135 2 0
-2136 3 0
-2137 1 0
-2138 2 0
-2139 3 0
-2140 1 0
-2141 2 0
-2142 3 0
-2143 1 0
-2144 2 0
-2145 3 0
-2146 1 0
-2147 2 0
-2148 3 0
-2149 1 0
-2150 2 0
-2151 3 0
-2152 1 0
-2153 2 0
-2154 3 0
-2155 1 0
-2156 2 0
-2157 3 0
-2158 1 0
-2159 2 0
-2160 3 0
-2161 1 0
-2162 2 0
-2163 3 0
-2164 1 0
-2165 2 0
-2166 3 0
-2167 1 0
-2168 2 0
-2169 3 0
-2170 1 0
-2171 2 0
-2172 3 0
-2173 1 0
-2174 2 0
-2175 3 0
-2176 1 0
-2177 2 0
-2178 3 0
-2179 1 0
-2180 2 0
-2181 3 0
-2182 1 0
-2183 2 0
-2184 3 0
-2185 1 0
-2186 2 0
-2187 3 0
-2188 1 0
-2189 2 0
-2190 3 0
-2191 1 0
-2192 2 0
-2193 3 0
-2194 1 0
-2195 2 0
-2196 3 0
-2197 1 0
-2198 2 0
-2199 3 0
-2200 1 0
-2201 2 0
-2202 3 0
-2203 1 0
-2204 2 0
-2205 3 0
-2206 1 0
-2207 2 0
-2208 3 0
-2209 1 0
-2210 2 0
-2211 3 0
-2212 1 0
-2213 2 0
-2214 3 0
-2215 1 0
-2216 2 0
-2217 3 0
-2218 1 0
-2219 2 0
-2220 3 0
-2221 1 0
-2222 2 0
-2223 3 0
-2224 1 0
-2225 2 0
-2226 3 0
-2227 1 0
-2228 2 0
-2229 3 0
-2230 1 0
-2231 2 0
-2232 3 0
-2233 1 0
-2234 2 0
-2235 3 0
-2236 1 0
-2237 2 0
-2238 3 0
-2239 1 0
-2240 2 0
-2241 3 0
-2242 1 0
-2243 2 0
-2244 3 0
-2245 1 0
-2246 2 0
-2247 3 0
-2248 1 0
-2249 2 0
-2250 3 0
-2251 1 0
-2252 2 0
-2253 3 0
-2254 1 0
-2255 2 0
-2256 3 0
-2257 1 0
-2258 2 0
-2259 3 0
-2260 1 0
-2261 2 0
-2262 3 0
-2263 1 0
-2264 2 0
-2265 3 0
-2266 1 0
-2267 2 0
-2268 3 0
-2269 1 0
-2270 2 0
-2271 3 0
-2272 1 0
-2273 2 0
-2274 3 0
-2275 1 0
-2276 2 0
-2277 3 0
-2278 1 0
-2279 2 0
-2280 3 0
-2281 1 0
-2282 2 0
-2283 3 0
-2284 1 0
-2285 2 0
-2286 3 0
-2287 1 0
-2288 2 0
-2289 3 0
-2290 1 0
-2291 2 0
-2292 3 0
-2293 1 0
-2294 2 0
-2295 3 0
-2296 1 0
-2297 2 0
-2298 3 0
-2299 1 0
-2300 2 0
-2301 3 0
-2302 1 0
-2303 2 0
-2304 3 0
-2305 1 0
-2306 2 0
-2307 3 0
-2308 1 0
-2309 2 0
-2310 3 0
-2311 1 0
-2312 2 0
-2313 3 0
-2314 1 0
-2315 2 0
-2316 3 0
-2317 1 0
-2318 2 0
-2319 3 0
-2320 1 0
-2321 2 0
-2322 3 0
-2323 1 0
-2324 2 0
-2325 3 0
-2326 1 0
-2327 2 0
-2328 3 0
-2329 1 0
-2330 2 0
-2331 3 0
-2332 1 0
-2333 2 0
-2334 3 0
-2335 1 0
-2336 2 0
-2337 3 0
-2338 1 0
-2339 2 0
-2340 3 0
-2341 1 0
-2342 2 0
-2343 3 0
-2344 1 0
-2345 2 0
-2346 3 0
-2347 1 0
-2348 2 0
-2349 3 0
-2350 1 0
-2351 2 0
-2352 3 0
-2353 1 0
-2354 2 0
-2355 3 0
-2356 1 0
-2357 2 0
-2358 3 0
-2359 1 0
-2360 2 0
-2361 3 0
-2362 1 0
-2363 2 0
-2364 3 0
-2365 1 0
-2366 2 0
-2367 3 0
-2368 1 0
-2369 2 0
-2370 3 0
-2371 1 0
-2372 2 0
-2373 3 0
-2374 1 0
-2375 2 0
-2376 3 0
-2377 1 0
-2378 2 0
-2379 3 0
-2380 1 0
-2381 2 0
-2382 3 0
-2383 1 0
-2384 2 0
-2385 3 0
-2386 1 0
-2387 2 0
-2388 3 0
-2389 1 0
-2390 2 0
-2391 3 0
-2392 1 0
-2393 2 0
-2394 3 0
-2395 1 0
-2396 2 0
-2397 3 0
-2398 1 0
-2399 2 0
-2400 3 0
-2401 1 0
-2402 2 0
-2403 3 0
-2404 1 0
-2405 2 0
-2406 3 0
-2407 1 0
-2408 2 0
-2409 3 0
-2410 1 0
-2411 2 0
-2412 3 0
-2413 1 0
-2414 2 0
-2415 3 0
-2416 1 0
-2417 2 0
-2418 3 0
-2419 1 0
-2420 2 0
-2421 3 0
-2422 1 0
-2423 2 0
-2424 3 0
-2425 1 0
-2426 2 0
-2427 3 0
-2428 1 0
-2429 2 0
-2430 3 0
-2431 1 0
-2432 2 0
-2433 3 0
-2434 1 0
-2435 2 0
-2436 3 0
-2437 1 0
-2438 2 0
-2439 3 0
-2440 1 0
-2441 2 0
-2442 3 0
-2443 1 0
-2444 2 0
-2445 3 0
-2446 1 0
-2447 2 0
-2448 3 0
-2449 1 0
-2450 2 0
-2451 3 0
-2452 1 0
-2453 2 0
-2454 3 0
-2455 1 0
-2456 2 0
-2457 3 0
-2458 1 0
-2459 2 0
-2460 3 0
-2461 1 0
-2462 2 0
-2463 3 0
-2464 1 0
-2465 2 0
-2466 3 0
-2467 1 0
-2468 2 0
-2469 3 0
-2470 1 0
-2471 2 0
-2472 3 0
-2473 1 0
-2474 2 0
-2475 3 0
-2476 1 0
-2477 2 0
-2478 3 0
-2479 1 0
-2480 2 0
-2481 3 0
-2482 1 0
-2483 2 0
-2484 3 0
-2485 1 0
-2486 2 0
-2487 3 0
-2488 1 0
-2489 2 0
-2490 3 0
-2491 1 0
-2492 2 0
-2493 3 0
-2494 1 0
-2495 2 0
-2496 3 0
-2497 1 0
-2498 2 0
-2499 3 0
-2500 1 0
-2501 2 0
-2502 3 0
-2503 1 0
-2504 2 0
-2505 3 0
-2506 1 0
-2507 2 0
-2508 3 0
-2509 1 0
-2510 2 0
-2511 3 0
-2512 1 0
-2513 2 0
-2514 3 0
-2515 1 0
-2516 2 0
-2517 3 0
-2518 1 0
-2519 2 0
-2520 3 0
-2521 1 0
-2522 2 0
-2523 3 0
-2524 1 0
-2525 2 0
-2526 3 0
-2527 1 0
-2528 2 0
-2529 3 0
-2530 1 0
-2531 2 0
-2532 3 0
-2533 1 0
-2534 2 0
-2535 3 0
-2536 1 0
-2537 2 0
-2538 3 0
-2539 1 0
-2540 2 0
-2541 3 0
-2542 1 0
-2543 2 0
-2544 3 0
-2545 1 0
-2546 2 0
-2547 3 0
-2548 1 0
-2549 2 0
-2550 3 0
-2551 1 0
-2552 2 0
-2553 3 0
-2554 1 0
-2555 2 0
-2556 3 0
-2557 1 0
-2558 2 0
-2559 3 0
-2560 1 0
-2561 2 0
-2562 3 0
-2563 1 0
-2564 2 0
-2565 3 0
-2566 1 0
-2567 2 0
-2568 3 0
-2569 1 0
-2570 2 0
-2571 3 0
-2572 1 0
-2573 2 0
-2574 3 0
-2575 1 0
-2576 2 0
-2577 3 0
-2578 1 0
-2579 2 0
-2580 3 0
-2581 1 0
-2582 2 0
-2583 3 0
-2584 1 0
-2585 2 0
-2586 3 0
-2587 1 0
-2588 2 0
-2589 3 0
-2590 1 0
-2591 2 0
-2592 3 0
-2593 1 0
-2594 2 0
-2595 3 0
-2596 1 0
-2597 2 0
-2598 3 0
-2599 1 0
-2600 2 0
-2601 3 0
-2602 1 0
-2603 2 0
-2604 3 0
-2605 1 0
-2606 2 0
-2607 3 0
-2608 1 0
-2609 2 0
-2610 3 0
-2611 1 0
-2612 2 0
-2613 3 0
-2614 1 0
-2615 2 0
-2616 3 0
-2617 1 0
-2618 2 0
-2619 3 0
-2620 1 0
-2621 2 0
-2622 3 0
-2623 1 0
-2624 2 0
-2625 3 0
-2626 1 0
-2627 2 0
-2628 3 0
-2629 1 0
-2630 2 0
-2631 3 0
-2632 1 0
-2633 2 0
-2634 3 0
-2635 1 0
-2636 2 0
-2637 3 0
-2638 1 0
-2639 2 0
-2640 3 0
-2641 1 0
-2642 2 0
-2643 3 0
-2644 1 0
-2645 2 0
-2646 3 0
-2647 1 0
-2648 2 0
-2649 3 0
-2650 1 0
-2651 2 0
-2652 3 0
-2653 1 0
-2654 2 0
-2655 3 0
-2656 1 0
-2657 2 0
-2658 3 0
-2659 1 0
-2660 2 0
-2661 3 0
-2662 1 0
-2663 2 0
-2664 3 0
-2665 1 0
-2666 2 0
-2667 3 0
-2668 1 0
-2669 2 0
-2670 3 0
-2671 1 0
-2672 2 0
-2673 3 0
-2674 1 0
-2675 2 0
-2676 3 0
-2677 1 0
-2678 2 0
-2679 3 0
-2680 1 0
-2681 2 0
-2682 3 0
-2683 1 0
-2684 2 0
-2685 3 0
-2686 1 0
-2687 2 0
-2688 3 0
-2689 1 0
-2690 2 0
-2691 3 0
-2692 1 0
-2693 2 0
-2694 3 0
-2695 1 0
-2696 2 0
-2697 3 0
-2698 1 0
-2699 2 0
-2700 3 0
-2701 1 0
-2702 2 0
-2703 3 0
-2704 1 0
-2705 2 0
-2706 3 0
-2707 1 0
-2708 2 0
-2709 3 0
-2710 1 0
-2711 2 0
-2712 3 0
-2713 1 0
-2714 2 0
-2715 3 0
-2716 1 0
-2717 2 0
-2718 3 0
-2719 1 0
-2720 2 0
-2721 3 0
-2722 1 0
-2723 2 0
-2724 3 0
-2725 1 0
-2726 2 0
-2727 3 0
-2728 1 0
-2729 2 0
-2730 3 0
-2731 1 0
-2732 2 0
-2733 3 0
-2734 1 0
-2735 2 0
-2736 3 0
-2737 1 0
-2738 2 0
-2739 3 0
-2740 1 0
-2741 2 0
-2742 3 0
-2743 1 0
-2744 2 0
-2745 3 0
-2746 1 0
-2747 2 0
-2748 3 0
-2749 1 0
-2750 2 0
-2751 3 0
-2752 1 0
-2753 2 0
-2754 3 0
-2755 1 0
-2756 2 0
-2757 3 0
-2758 1 0
-2759 2 0
-2760 3 0
-2761 1 0
-2762 2 0
-2763 3 0
-2764 1 0
-2765 2 0
-2766 3 0
-2767 1 0
-2768 2 0
-2769 3 0
-2770 1 0
-2771 2 0
-2772 3 0
-2773 1 0
-2774 2 0
-2775 3 0
-2776 1 0
-2777 2 0
-2778 3 0
-2779 1 0
-2780 2 0
-2781 3 0
-2782 1 0
-2783 2 0
-2784 3 0
-2785 1 0
-2786 2 0
-2787 3 0
-2788 1 0
-2789 2 0
-2790 3 0
-2791 1 0
-2792 2 0
-2793 3 0
-2794 1 0
-2795 2 0
-2796 3 0
-2797 1 0
-2798 2 0
-2799 3 0
-2800 1 0
-2801 2 0
-2802 3 0
-2803 1 0
-2804 2 0
-2805 3 0
-2806 1 0
-2807 2 0
-2808 3 0
-2809 1 0
-2810 2 0
-2811 3 0
-2812 1 0
-2813 2 0
-2814 3 0
-2815 1 0
-2816 2 0
-2817 3 0
-2818 1 0
-2819 2 0
-2820 3 0
-2821 1 0
-2822 2 0
-2823 3 0
-2824 1 0
-2825 2 0
-2826 3 0
-2827 1 0
-2828 2 0
-2829 3 0
-2830 1 0
-2831 2 0
-2832 3 0
-2833 1 0
-2834 2 0
-2835 3 0
-2836 1 0
-2837 2 0
-2838 3 0
-2839 1 0
-2840 2 0
-2841 3 0
-2842 1 0
-2843 2 0
-2844 3 0
-2845 1 0
-2846 2 0
-2847 3 0
-2848 1 0
-2849 2 0
-2850 3 0
-2851 1 0
-2852 2 0
-2853 3 0
-2854 1 0
-2855 2 0
-2856 3 0
-2857 1 0
-2858 2 0
-2859 3 0
-2860 1 0
-2861 2 0
-2862 3 0
-2863 1 0
-2864 2 0
-2865 3 0
-2866 1 0
-2867 2 0
-2868 3 0
-2869 1 0
-2870 2 0
-2871 3 0
-2872 1 0
-2873 2 0
-2874 3 0
-2875 1 0
-2876 2 0
-2877 3 0
-2878 1 0
-2879 2 0
-2880 3 0
-2881 1 0
-2882 2 0
-2883 3 0
-2884 1 0
-2885 2 0
-2886 3 0
-2887 1 0
-2888 2 0
-2889 3 0
-2890 1 0
-2891 2 0
-2892 3 0
-2893 1 0
-2894 2 0
-2895 3 0
-2896 1 0
-2897 2 0
-2898 3 0
-2899 1 0
-2900 2 0
-2901 3 0
-2902 1 0
-2903 2 0
-2904 3 0
-2905 1 0
-2906 2 0
-2907 3 0
-2908 1 0
-2909 2 0
-2910 3 0
-2911 1 0
-2912 2 0
-2913 3 0
-2914 1 0
-2915 2 0
-2916 3 0
-2917 1 0
-2918 2 0
-2919 3 0
-2920 1 0
-2921 2 0
-2922 3 0
-2923 1 0
-2924 2 0
-2925 3 0
-2926 1 0
-2927 2 0
-2928 3 0
-2929 1 0
-2930 2 0
-2931 3 0
-2932 1 0
-2933 2 0
-2934 3 0
-2935 1 0
-2936 2 0
-2937 3 0
-2938 1 0
-2939 2 0
-2940 3 0
-2941 1 0
-2942 2 0
-2943 3 0
-2944 1 0
-2945 2 0
-2946 3 0
-2947 1 0
-2948 2 0
-2949 3 0
-2950 1 0
-2951 2 0
-2952 3 0
-2953 1 0
-2954 2 0
-2955 3 0
-2956 1 0
-2957 2 0
-2958 3 0
-2959 1 0
-2960 2 0
-2961 3 0
-2962 1 0
-2963 2 0
-2964 3 0
-2965 1 0
-2966 2 0
-2967 3 0
-2968 1 0
-2969 2 0
-2970 3 0
-2971 1 0
-2972 2 0
-2973 3 0
-2974 1 0
-2975 2 0
-2976 3 0
-2977 1 0
-2978 2 0
-2979 3 0
-2980 1 0
-2981 2 0
-2982 3 0
-2983 1 0
-2984 2 0
-2985 3 0
-2986 1 0
-2987 2 0
-2988 3 0
-2989 1 0
-2990 2 0
-2991 3 0
-2992 1 0
-2993 2 0
-2994 3 0
-2995 1 0
-2996 2 0
-2997 3 0
-2998 1 0
-2999 2 0
-3000 3 0
-3001 1 0
-3002 2 0
-3003 3 0
-3004 1 0
-3005 2 0
-3006 3 0
-3007 1 0
-3008 2 0
-3009 3 0
-3010 1 0
-3011 2 0
-3012 3 0
-3013 1 0
-3014 2 0
-3015 3 0
-3016 1 0
-3017 2 0
-3018 3 0
-3019 1 0
-3020 2 0
-3021 3 0
-3022 1 0
-3023 2 0
-3024 3 0
-3025 1 0
-3026 2 0
-3027 3 0
-3028 1 0
-3029 2 0
-3030 3 0
-3031 1 0
-3032 2 0
-3033 3 0
-3034 1 0
-3035 2 0
-3036 3 0
-3037 1 0
-3038 2 0
-3039 3 0
-3040 1 0
-3041 2 0
-3042 3 0
-3043 1 0
-3044 2 0
-3045 3 0
-3046 1 0
-3047 2 0
-3048 3 0
-3049 1 0
-3050 2 0
-3051 3 0
-3052 1 0
-3053 2 0
-3054 3 0
-3055 1 0
-3056 2 0
-3057 3 0
-3058 1 0
-3059 2 0
-3060 3 0
-3061 1 0
-3062 2 0
-3063 3 0
-3064 1 0
-3065 2 0
-3066 3 0
-3067 1 0
-3068 2 0
-3069 3 0
-3070 1 0
-3071 2 0
-3072 3 0
-3073 1 0
-3074 2 0
-3075 3 0
-3076 1 0
-3077 2 0
-3078 3 0
-3079 1 0
-3080 2 0
-3081 3 0
-3082 1 0
-3083 2 0
-3084 3 0
-3085 1 0
-3086 2 0
-3087 3 0
-3088 1 0
-3089 2 0
-3090 3 0
-3091 1 0
-3092 2 0
-3093 3 0
-3094 1 0
-3095 2 0
-3096 3 0
-3097 1 0
-3098 2 0
-3099 3 0
-3100 1 0
-3101 2 0
-3102 3 0
-3103 1 0
-3104 2 0
-3105 3 0
-3106 1 0
-3107 2 0
-3108 3 0
-3109 1 0
-3110 2 0
-3111 3 0
-3112 1 0
-3113 2 0
-3114 3 0
-3115 1 0
-3116 2 0
-3117 3 0
-3118 1 0
-3119 2 0
-3120 3 0
-3121 1 0
-3122 2 0
-3123 3 0
-3124 1 0
-3125 2 0
-3126 3 0
-3127 1 0
-3128 2 0
-3129 3 0
-3130 1 0
-3131 2 0
-3132 3 0
-3133 1 0
-3134 2 0
-3135 3 0
-3136 1 0
-3137 2 0
-3138 3 0
-3139 1 0
-3140 2 0
-3141 3 0
-3142 1 0
-3143 2 0
-3144 3 0
-3145 1 0
-3146 2 0
-3147 3 0
-3148 1 0
-3149 2 0
-3150 3 0
-3151 1 0
-3152 2 0
-3153 3 0
-3154 1 0
-3155 2 0
-3156 3 0
-3157 1 0
-3158 2 0
-3159 3 0
-3160 1 0
-3161 2 0
-3162 3 0
-3163 1 0
-3164 2 0
-3165 3 0
-3166 1 0
-3167 2 0
-3168 3 0
-3169 1 0
-3170 2 0
-3171 3 0
-3172 1 0
-3173 2 0
-3174 3 0
-3175 1 0
-3176 2 0
-3177 3 0
-3178 1 0
-3179 2 0
-3180 3 0
-3181 1 0
-3182 2 0
-3183 3 0
-3184 1 0
-3185 2 0
-3186 3 0
-3187 1 0
-3188 2 0
-3189 3 0
-3190 1 0
-3191 2 0
-3192 3 0
-3193 1 0
-3194 2 0
-3195 3 0
-3196 1 0
-3197 2 0
-3198 3 0
-3199 1 0
-3200 2 0
-3201 3 0
-3202 1 0
-3203 2 0
-3204 3 0
-3205 1 0
-3206 2 0
-3207 3 0
-3208 1 0
-3209 2 0
-3210 3 0
-3211 1 0
-3212 2 0
-3213 3 0
-3214 1 0
-3215 2 0
-3216 3 0
-3217 1 0
-3218 2 0
-3219 3 0
-3220 1 0
-3221 2 0
-3222 3 0
-3223 1 0
-3224 2 0
-3225 3 0
-3226 1 0
-3227 2 0
-3228 3 0
-3229 1 0
-3230 2 0
-3231 3 0
-3232 1 0
-3233 2 0
-3234 3 0
-3235 1 0
-3236 2 0
-3237 3 0
-3238 1 0
-3239 2 0
-3240 3 0
-3241 1 0
-3242 2 0
-3243 3 0
-3244 1 0
-3245 2 0
-3246 3 0
-3247 1 0
-3248 2 0
-3249 3 0
-3250 1 0
-3251 2 0
-3252 3 0
-3253 1 0
-3254 2 0
-3255 3 0
-3256 1 0
-3257 2 0
-3258 3 0
-3259 1 0
-3260 2 0
-3261 3 0
-3262 1 0
-3263 2 0
-3264 3 0
-3265 1 0
-3266 2 0
-3267 3 0
-3268 1 0
-3269 2 0
-3270 3 0
-3271 1 0
-3272 2 0
-3273 3 0
-3274 1 0
-3275 2 0
-3276 3 0
-3277 1 0
-3278 2 0
-3279 3 0
-3280 1 0
-3281 2 0
-3282 3 0
-3283 1 0
-3284 2 0
-3285 3 0
-3286 1 0
-3287 2 0
-3288 3 0
-3289 1 0
-3290 2 0
-3291 3 0
-3292 1 0
-3293 2 0
-3294 3 0
-3295 1 0
-3296 2 0
-3297 3 0
-3298 1 0
-3299 2 0
-3300 3 0
-3301 1 0
-3302 2 0
-3303 3 0
-3304 1 0
-3305 2 0
-3306 3 0
-3307 1 0
-3308 2 0
-3309 3 0
-3310 1 0
-3311 2 0
-3312 3 0
-3313 1 0
-3314 2 0
-3315 3 0
-3316 1 0
-3317 2 0
-3318 3 0
-3319 1 0
-3320 2 0
-3321 3 0
-3322 1 0
-3323 2 0
-3324 3 0
-3325 1 0
-3326 2 0
-3327 3 0
-3328 1 0
-3329 2 0
-3330 3 0
-3331 1 0
-3332 2 0
-3333 3 0
-3334 1 0
-3335 2 0
-3336 3 0
-3337 1 0
-3338 2 0
-3339 3 0
-3340 1 0
-3341 2 0
-3342 3 0
-3343 1 0
-3344 2 0
-3345 3 0
-3346 1 0
-3347 2 0
-3348 3 0
-3349 1 0
-3350 2 0
-3351 3 0
-3352 1 0
-3353 2 0
-3354 3 0
-3355 1 0
-3356 2 0
-3357 3 0
-3358 1 0
-3359 2 0
-3360 3 0
-3361 1 0
-3362 2 0
-3363 3 0
-3364 1 0
-3365 2 0
-3366 3 0
-3367 1 0
-3368 2 0
-3369 3 0
-3370 1 0
-3371 2 0
-3372 3 0
-3373 1 0
-3374 2 0
-3375 3 0
-3376 1 0
-3377 2 0
-3378 3 0
-3379 1 0
-3380 2 0
-3381 3 0
-3382 1 0
-3383 2 0
-3384 3 0
-3385 1 0
-3386 2 0
-3387 3 0
-3388 1 0
-3389 2 0
-3390 3 0
-3391 1 0
-3392 2 0
-3393 3 0
-3394 1 0
-3395 2 0
-3396 3 0
-3397 1 0
-3398 2 0
-3399 3 0
-3400 1 0
-3401 2 0
-3402 3 0
-3403 1 0
-3404 2 0
-3405 3 0
-3406 1 0
-3407 2 0
-3408 3 0
-3409 1 0
-3410 2 0
-3411 3 0
-3412 1 0
-3413 2 0
-3414 3 0
-3415 1 0
-3416 2 0
-3417 3 0
-3418 1 0
-3419 2 0
-3420 3 0
-3421 1 0
-3422 2 0
-3423 3 0
-3424 1 0
-3425 2 0
-3426 3 0
-3427 1 0
-3428 2 0
-3429 3 0
-3430 1 0
-3431 2 0
-3432 3 0
-3433 1 0
-3434 2 0
-3435 3 0
-3436 1 0
-3437 2 0
-3438 3 0
-3439 1 0
-3440 2 0
-3441 3 0
-3442 1 0
-3443 2 0
-3444 3 0
-3445 1 0
-3446 2 0
-3447 3 0
-3448 1 0
-3449 2 0
-3450 3 0
-3451 1 0
-3452 2 0
-3453 3 0
-3454 1 0
-3455 2 0
-3456 3 0
-3457 1 0
-3458 2 0
-3459 3 0
-3460 1 0
-3461 2 0
-3462 3 0
-3463 1 0
-3464 2 0
-3465 3 0
-3466 1 0
-3467 2 0
-3468 3 0
-3469 1 0
-3470 2 0
-3471 3 0
-3472 1 0
-3473 2 0
-3474 3 0
-3475 1 0
-3476 2 0
-3477 3 0
-3478 1 0
-3479 2 0
-3480 3 0
-3481 1 0
-3482 2 0
-3483 3 0
-3484 1 0
-3485 2 0
-3486 3 0
-3487 1 0
-3488 2 0
-3489 3 0
-3490 1 0
-3491 2 0
-3492 3 0
-3493 1 0
-3494 2 0
-3495 3 0
-3496 1 0
-3497 2 0
-3498 3 0
-3499 1 0
-3500 2 0
-3501 3 0
-3502 1 0
-3503 2 0
-3504 3 0
-3505 1 0
-3506 2 0
-3507 3 0
-3508 1 0
-3509 2 0
-3510 3 0
-3511 1 0
-3512 2 0
-3513 3 0
-3514 1 0
-3515 2 0
-3516 3 0
-3517 1 0
-3518 2 0
-3519 3 0
-3520 1 0
-3521 2 0
-3522 3 0
-3523 1 0
-3524 2 0
-3525 3 0
-3526 1 0
-3527 2 0
-3528 3 0
-3529 1 0
-3530 2 0
-3531 3 0
-3532 1 0
-3533 2 0
-3534 3 0
-3535 1 0
-3536 2 0
-3537 3 0
-3538 1 0
-3539 2 0
-3540 3 0
-3541 1 0
-3542 2 0
-3543 3 0
-3544 1 0
-3545 2 0
-3546 3 0
-3547 1 0
-3548 2 0
-3549 3 0
-3550 1 0
-3551 2 0
-3552 3 0
-3553 1 0
-3554 2 0
-3555 3 0
-3556 1 0
-3557 2 0
-3558 3 0
-3559 1 0
-3560 2 0
-3561 3 0
-3562 1 0
-3563 2 0
-3564 3 0
-3565 1 0
-3566 2 0
-3567 3 0
-3568 1 0
-3569 2 0
-3570 3 0
-3571 1 0
-3572 2 0
-3573 3 0
-3574 1 0
-3575 2 0
-3576 3 0
-3577 1 0
-3578 2 0
-3579 3 0
-3580 1 0
-3581 2 0
-3582 3 0
-3583 1 0
-3584 2 0
-3585 3 0
-3586 1 0
-3587 2 0
-3588 3 0
-3589 1 0
-3590 2 0
-3591 3 0
-3592 1 0
-3593 2 0
-3594 3 0
-3595 1 0
-3596 2 0
-3597 3 0
-3598 1 0
-3599 2 0
-3600 3 0
-3601 1 0
-3602 2 0
-3603 3 0
-3604 1 0
-3605 2 0
-3606 3 0
-3607 1 0
-3608 2 0
-3609 3 0
-3610 1 0
-3611 2 0
-3612 3 0
-3613 1 0
-3614 2 0
-3615 3 0
-3616 1 0
-3617 2 0
-3618 3 0
-3619 1 0
-3620 2 0
-3621 3 0
-3622 1 0
-3623 2 0
-3624 3 0
-3625 1 0
-3626 2 0
-3627 3 0
-3628 1 0
-3629 2 0
-3630 3 0
-3631 1 0
-3632 2 0
-3633 3 0
-3634 1 0
-3635 2 0
-3636 3 0
-3637 1 0
-3638 2 0
-3639 3 0
-3640 1 0
-3641 2 0
-3642 3 0
-3643 1 0
-3644 2 0
-3645 3 0
-3646 1 0
-3647 2 0
-3648 3 0
-3649 1 0
-3650 2 0
-3651 3 0
-3652 1 0
-3653 2 0
-3654 3 0
-3655 1 0
-3656 2 0
-3657 3 0
-3658 1 0
-3659 2 0
-3660 3 0
-3661 1 0
-3662 2 0
-3663 3 0
-3664 1 0
-3665 2 0
-3666 3 0
-3667 1 0
-3668 2 0
-3669 3 0
-3670 1 0
-3671 2 0
-3672 3 0
-3673 1 0
-3674 2 0
-3675 3 0
-3676 1 0
-3677 2 0
-3678 3 0
-3679 1 0
-3680 2 0
-3681 3 0
-3682 1 0
-3683 2 0
-3684 3 0
-3685 1 0
-3686 2 0
-3687 3 0
-3688 1 0
-3689 2 0
-3690 3 0
-3691 1 0
-3692 2 0
-3693 3 0
-3694 1 0
-3695 2 0
-3696 3 0
-3697 1 0
-3698 2 0
-3699 3 0
-3700 1 0
-3701 2 0
-3702 3 0
-3703 1 0
-3704 2 0
-3705 3 0
-3706 1 0
-3707 2 0
-3708 3 0
-3709 1 0
-3710 2 0
-3711 3 0
-3712 1 0
-3713 2 0
-3714 3 0
-3715 1 0
-3716 2 0
-3717 3 0
-3718 1 0
-3719 2 0
-3720 3 0
-3721 1 0
-3722 2 0
-3723 3 0
-3724 1 0
-3725 2 0
-3726 3 0
-3727 1 0
-3728 2 0
-3729 3 0
-3730 1 0
-3731 2 0
-3732 3 0
-3733 1 0
-3734 2 0
-3735 3 0
-3736 1 0
-3737 2 0
-3738 3 0
-3739 1 0
-3740 2 0
-3741 3 0
-3742 1 0
-3743 2 0
-3744 3 0
-3745 1 0
-3746 2 0
-3747 3 0
-3748 1 0
-3749 2 0
-3750 3 0
-3751 1 0
-3752 2 0
-3753 3 0
-3754 1 0
-3755 2 0
-3756 3 0
-3757 1 0
-3758 2 0
-3759 3 0
-3760 1 0
-3761 2 0
-3762 3 0
-3763 1 0
-3764 2 0
-3765 3 0
-3766 1 0
-3767 2 0
-3768 3 0
-3769 1 0
-3770 2 0
-3771 3 0
-3772 1 0
-3773 2 0
-3774 3 0
-3775 1 0
-3776 2 0
-3777 3 0
-3778 1 0
-3779 2 0
-3780 3 0
-3781 1 0
-3782 2 0
-3783 3 0
-3784 1 0
-3785 2 0
-3786 3 0
-3787 1 0
-3788 2 0
-3789 3 0
-3790 1 0
-3791 2 0
-3792 3 0
-3793 1 0
-3794 2 0
-3795 3 0
-3796 1 0
-3797 2 0
-3798 3 0
-3799 1 0
-3800 2 0
-3801 3 0
-3802 1 0
-3803 2 0
-3804 3 0
-3805 1 0
-3806 2 0
-3807 3 0
-3808 1 0
-3809 2 0
-3810 3 0
-3811 1 0
-3812 2 0
-3813 3 0
-3814 1 0
-3815 2 0
-3816 3 0
-3817 1 0
-3818 2 0
-3819 3 0
-3820 1 0
-3821 2 0
-3822 3 0
-3823 1 0
-3824 2 0
-3825 3 0
-3826 1 0
-3827 2 0
-3828 3 0
-3829 1 0
-3830 2 0
-3831 3 0
-3832 1 0
-3833 2 0
-3834 3 0
-3835 1 0
-3836 2 0
-3837 3 0
-3838 1 0
-3839 2 0
-3840 3 0
-3841 1 0
-3842 2 0
-3843 3 0
-3844 1 0
-3845 2 0
-3846 3 0
-3847 1 0
-3848 2 0
-3849 3 0
-3850 1 0
-3851 2 0
-3852 3 0
-3853 1 0
-3854 2 0
-3855 3 0
-3856 1 0
-3857 2 0
-3858 3 0
-3859 1 0
-3860 2 0
-3861 3 0
-3862 1 0
-3863 2 0
-3864 3 0
-3865 1 0
-3866 2 0
-3867 3 0
-3868 1 0
-3869 2 0
-3870 3 0
-3871 1 0
-3872 2 0
-3873 3 0
-3874 1 0
-3875 2 0
-3876 3 0
-3877 1 0
-3878 2 0
-3879 3 0
-3880 1 0
-3881 2 0
-3882 3 0
-3883 1 0
-3884 2 0
-3885 3 0
-3886 1 0
-3887 2 0
-3888 3 0
-3889 1 0
-3890 2 0
-3891 3 0
-3892 1 0
-3893 2 0
-3894 3 0
-3895 1 0
-3896 2 0
-3897 3 0
-3898 1 0
-3899 2 0
-3900 3 0
-3901 1 0
-3902 2 0
-3903 3 0
-3904 1 0
-3905 2 0
-3906 3 0
-3907 1 0
-3908 2 0
-3909 3 0
-3910 1 0
-3911 2 0
-3912 3 0
-3913 1 0
-3914 2 0
-3915 3 0
-3916 1 0
-3917 2 0
-3918 3 0
-3919 1 0
-3920 2 0
-3921 3 0
-3922 1 0
-3923 2 0
-3924 3 0
-3925 1 0
-3926 2 0
-3927 3 0
-3928 1 0
-3929 2 0
-3930 3 0
-3931 1 0
-3932 2 0
-3933 3 0
-3934 1 0
-3935 2 0
-3936 3 0
-3937 1 0
-3938 2 0
-3939 3 0
-3940 1 0
-3941 2 0
-3942 3 0
-3943 1 0
-3944 2 0
-3945 3 0
-3946 1 0
-3947 2 0
-3948 3 0
-3949 1 0
-3950 2 0
-3951 3 0
-3952 1 0
-3953 2 0
-3954 3 0
-3955 1 0
-3956 2 0
-3957 3 0
-3958 1 0
-3959 2 0
-3960 3 0
-3961 1 0
-3962 2 0
-3963 3 0
-3964 1 0
-3965 2 0
-3966 3 0
-3967 1 0
-3968 2 0
-3969 3 0
-3970 1 0
-3971 2 0
-3972 3 0
-3973 1 0
-3974 2 0
-3975 3 0
-3976 1 0
-3977 2 0
-3978 3 0
-3979 1 0
-3980 2 0
-3981 3 0
-3982 1 0
-3983 2 0
-3984 3 0
-3985 1 0
-3986 2 0
-3987 3 0
-3988 1 0
-3989 2 0
-3990 3 0
-3991 1 0
-3992 2 0
-3993 3 0
-3994 1 0
-3995 2 0
-3996 3 0
-3997 1 0
-3998 2 0
-3999 3 0
-4000 1 0
-4001 2 0
-4002 3 0
-4003 1 0
-4004 2 0
-4005 3 0
-4006 1 0
-4007 2 0
-4008 3 0
-4009 1 0
-4010 2 0
-4011 3 0
-4012 1 0
-4013 2 0
-4014 3 0
-4015 1 0
-4016 2 0
-4017 3 0
-4018 1 0
-4019 2 0
-4020 3 0
-4021 1 0
-4022 2 0
-4023 3 0
-4024 1 0
-4025 2 0
-4026 3 0
-4027 1 0
-4028 2 0
-4029 3 0
-4030 1 0
-4031 2 0
-4032 3 0
-4033 1 0
-4034 2 0
-4035 3 0
-4036 1 0
-4037 2 0
-4038 3 0
-4039 1 0
-4040 2 0
-4041 3 0
-4042 1 0
-4043 2 0
-4044 3 0
-4045 1 0
-4046 2 0
-4047 3 0
-4048 1 0
-4049 2 0
-4050 3 0
-4051 1 0
-4052 2 0
-4053 3 0
-4054 1 0
-4055 2 0
-4056 3 0
-4057 1 0
-4058 2 0
-4059 3 0
-4060 1 0
-4061 2 0
-4062 3 0
-4063 1 0
-4064 2 0
-4065 3 0
-4066 1 0
-4067 2 0
-4068 3 0
-4069 1 0
-4070 2 0
-4071 3 0
-4072 1 0
-4073 2 0
-4074 3 0
-4075 1 0
-4076 2 0
-4077 3 0
-4078 1 0
-4079 2 0
-4080 3 0
-4081 1 0
-4082 2 0
-4083 3 0
-4084 1 0
-4085 2 0
-4086 3 0
-4087 1 0
-4088 2 0
-4089 3 0
-4090 1 0
-4091 2 0
-4092 3 0
-4093 1 0
-4094 2 0
-4095 3 0
-4096 1 0
-4097 2 0
-4098 3 0
-4099 1 0
-4100 2 0
-4101 3 0
-4102 1 0
-4103 2 0
-4104 3 0
-4105 1 0
-4106 2 0
-4107 3 0
-4108 1 0
-4109 2 0
-4110 3 0
-4111 1 0
-4112 2 0
-4113 3 0
-4114 1 0
-4115 2 0
-4116 3 0
-4117 1 0
-4118 2 0
-4119 3 0
-4120 1 0
-4121 2 0
-4122 3 0
-4123 1 0
-4124 2 0
-4125 3 0
-4126 1 0
-4127 2 0
-4128 3 0
-4129 1 0
-4130 2 0
-4131 3 0
-4132 1 0
-4133 2 0
-4134 3 0
-4135 1 0
-4136 2 0
-4137 3 0
-4138 1 0
-4139 2 0
-4140 3 0
-4141 1 0
-4142 2 0
-4143 3 0
-4144 1 0
-4145 2 0
-4146 3 0
-4147 1 0
-4148 2 0
-4149 3 0
-4150 1 0
-4151 2 0
-4152 3 0
-4153 1 0
-4154 2 0
-4155 3 0
-4156 1 0
-4157 2 0
-4158 3 0
-4159 1 0
-4160 2 0
-4161 3 0
-4162 1 0
-4163 2 0
-4164 3 0
-4165 1 0
-4166 2 0
-4167 3 0
-4168 1 0
-4169 2 0
-4170 3 0
-4171 1 0
-4172 2 0
-4173 3 0
-4174 1 0
-4175 2 0
-4176 3 0
-4177 1 0
-4178 2 0
-4179 3 0
-4180 1 0
-4181 2 0
-4182 3 0
-4183 1 0
-4184 2 0
-4185 3 0
-4186 1 0
-4187 2 0
-4188 3 0
-4189 1 0
-4190 2 0
-4191 3 0
-4192 1 0
-4193 2 0
-4194 3 0
-4195 1 0
-4196 2 0
-4197 3 0
-4198 1 0
-4199 2 0
-4200 3 0
-4201 1 0
-4202 2 0
-4203 3 0
-4204 1 0
-4205 2 0
-4206 3 0
-4207 1 0
-4208 2 0
-4209 3 0
-4210 1 0
-4211 2 0
-4212 3 0
-4213 1 0
-4214 2 0
-4215 3 0
-4216 1 0
-4217 2 0
-4218 3 0
-4219 1 0
-4220 2 0
-4221 3 0
-4222 1 0
-4223 2 0
-4224 3 0
-4225 1 0
-4226 2 0
-4227 3 0
-4228 1 0
-4229 2 0
-4230 3 0
-4231 1 0
-4232 2 0
-4233 3 0
-4234 1 0
-4235 2 0
-4236 3 0
-4237 1 0
-4238 2 0
-4239 3 0
-4240 1 0
-4241 2 0
-4242 3 0
-4243 1 0
-4244 2 0
-4245 3 0
-4246 1 0
-4247 2 0
-4248 3 0
-4249 1 0
-4250 2 0
-4251 3 0
-4252 1 0
-4253 2 0
-4254 3 0
-4255 1 0
-4256 2 0
-4257 3 0
-4258 1 0
-4259 2 0
-4260 3 0
-4261 1 0
-4262 2 0
-4263 3 0
-4264 1 0
-4265 2 0
-4266 3 0
-4267 1 0
-4268 2 0
-4269 3 0
-4270 1 0
-4271 2 0
-4272 3 0
-4273 1 0
-4274 2 0
-4275 3 0
-4276 1 0
-4277 2 0
-4278 3 0
-4279 1 0
-4280 2 0
-4281 3 0
-4282 1 0
-4283 2 0
-4284 3 0
-4285 1 0
-4286 2 0
-4287 3 0
-4288 1 0
-4289 2 0
-4290 3 0
-4291 1 0
-4292 2 0
-4293 3 0
-4294 1 0
-4295 2 0
-4296 3 0
-4297 1 0
-4298 2 0
-4299 3 0
-4300 1 0
-4301 2 0
-4302 3 0
-4303 1 0
-4304 2 0
-4305 3 0
-4306 1 0
-4307 2 0
-4308 3 0
-4309 1 0
-4310 2 0
-4311 3 0
-4312 1 0
-4313 2 0
-4314 3 0
-4315 1 0
-4316 2 0
-4317 3 0
-4318 1 0
-4319 2 0
-4320 3 0
-4321 1 0
-4322 2 0
-4323 3 0
-4324 1 0
-4325 2 0
-4326 3 0
-4327 1 0
-4328 2 0
-4329 3 0
-4330 1 0
-4331 2 0
-4332 3 0
-4333 1 0
-4334 2 0
-4335 3 0
-4336 1 0
-4337 2 0
-4338 3 0
-4339 1 0
-4340 2 0
-4341 3 0
-4342 1 0
-4343 2 0
-4344 3 0
-4345 1 0
-4346 2 0
-4347 3 0
-4348 1 0
-4349 2 0
-4350 3 0
-4351 1 0
-4352 2 0
-4353 3 0
-4354 1 0
-4355 2 0
-4356 3 0
-4357 1 0
-4358 2 0
-4359 3 0
-4360 1 0
-4361 2 0
-4362 3 0
-4363 1 0
-4364 2 0
-4365 3 0
-4366 1 0
-4367 2 0
-4368 3 0
-4369 1 0
-4370 2 0
-4371 3 0
-4372 1 0
-4373 2 0
-4374 3 0
-4375 1 0
-4376 2 0
-4377 3 0
-4378 1 0
-4379 2 0
-4380 3 0
-4381 1 0
-4382 2 0
-4383 3 0
-4384 1 0
-4385 2 0
-4386 3 0
-4387 1 0
-4388 2 0
-4389 3 0
-4390 1 0
-4391 2 0
-4392 3 0
-4393 1 0
-4394 2 0
-4395 3 0
-4396 1 0
-4397 2 0
-4398 3 0
-4399 1 0
-4400 2 0
-4401 3 0
-4402 1 0
-4403 2 0
-4404 3 0
-4405 1 0
-4406 2 0
-4407 3 0
-4408 1 0
-4409 2 0
-4410 3 0
-4411 1 0
-4412 2 0
-4413 3 0
-4414 1 0
-4415 2 0
-4416 3 0
-4417 1 0
-4418 2 0
-4419 3 0
-4420 1 0
-4421 2 0
-4422 3 0
-4423 1 0
-4424 2 0
-4425 3 0
-4426 1 0
-4427 2 0
-4428 3 0
-4429 1 0
-4430 2 0
-4431 3 0
-4432 1 0
-4433 2 0
-4434 3 0
-4435 1 0
-4436 2 0
-4437 3 0
-4438 1 0
-4439 2 0
-4440 3 0
-4441 1 0
-4442 2 0
-4443 3 0
-4444 1 0
-4445 2 0
-4446 3 0
-4447 1 0
-4448 2 0
-4449 3 0
-4450 1 0
-4451 2 0
-4452 3 0
-4453 1 0
-4454 2 0
-4455 3 0
-4456 1 0
-4457 2 0
-4458 3 0
-4459 1 0
-4460 2 0
-4461 3 0
-4462 1 0
-4463 2 0
-4464 3 0
-4465 1 0
-4466 2 0
-4467 3 0
-4468 1 0
-4469 2 0
-4470 3 0
-4471 1 0
-4472 2 0
-4473 3 0
-4474 1 0
-4475 2 0
-4476 3 0
-4477 1 0
-4478 2 0
-4479 3 0
-4480 1 0
-4481 2 0
-4482 3 0
-4483 1 0
-4484 2 0
-4485 3 0
-4486 1 0
-4487 2 0
-4488 3 0
-4489 1 0
-4490 2 0
-4491 3 0
-4492 1 0
-4493 2 0
-4494 3 0
-4495 1 0
-4496 2 0
-4497 3 0
-4498 1 0
-4499 2 0
-4500 3 0
-4501 1 0
-4502 2 0
-4503 3 0
-4504 1 0
-4505 2 0
-4506 3 0
-4507 1 0
-4508 2 0
-4509 3 0
-4510 1 0
-4511 2 0
-4512 3 0
-4513 1 0
-4514 2 0
-4515 3 0
-4516 1 0
-4517 2 0
-4518 3 0
-4519 1 0
-4520 2 0
-4521 3 0
-4522 1 0
-4523 2 0
-4524 3 0
-4525 1 0
-4526 2 0
-4527 3 0
-4528 1 0
-4529 2 0
-4530 3 0
-4531 1 0
-4532 2 0
-4533 3 0
-4534 1 0
-4535 2 0
-4536 3 0
-4537 1 0
-4538 2 0
-4539 3 0
-4540 1 0
-4541 2 0
-4542 3 0
-4543 1 0
-4544 2 0
-4545 3 0
-4546 1 0
-4547 2 0
-4548 3 0
-4549 1 0
-4550 2 0
-4551 3 0
-4552 1 0
-4553 2 0
-4554 3 0
-4555 1 0
-4556 2 0
-4557 3 0
-4558 1 0
-4559 2 0
-4560 3 0
-4561 1 0
-4562 2 0
-4563 3 0
-4564 1 0
-4565 2 0
-4566 3 0
-4567 1 0
-4568 2 0
-4569 3 0
-4570 1 0
-4571 2 0
-4572 3 0
-4573 1 0
-4574 2 0
-4575 3 0
-4576 1 0
-4577 2 0
-4578 3 0
-4579 1 0
-4580 2 0
-4581 3 0
-4582 1 0
-4583 2 0
-4584 3 0
-4585 1 0
-4586 2 0
-4587 3 0
-4588 1 0
-4589 2 0
-4590 3 0
-4591 1 0
-4592 2 0
-4593 3 0
-4594 1 0
-4595 2 0
-4596 3 0
-4597 1 0
-4598 2 0
-4599 3 0
-4600 1 0
-4601 2 0
-4602 3 0
-4603 1 0
-4604 2 0
-4605 3 0
-4606 1 0
-4607 2 0
-4608 3 0
-4609 1 0
-4610 2 0
-4611 3 0
-4612 1 0
-4613 2 0
-4614 3 0
-4615 1 0
-4616 2 0
-4617 3 0
-4618 1 0
-4619 2 0
-4620 3 0
-4621 1 0
-4622 2 0
-4623 3 0
-4624 1 0
-4625 2 0
-4626 3 0
-4627 1 0
-4628 2 0
-4629 3 0
-4630 1 0
-4631 2 0
-4632 3 0
-4633 1 0
-4634 2 0
-4635 3 0
-4636 1 0
-4637 2 0
-4638 3 0
-4639 1 0
-4640 2 0
-4641 3 0
-4642 1 0
-4643 2 0
-4644 3 0
-4645 1 0
-4646 2 0
-4647 3 0
-4648 1 0
-4649 2 0
-4650 3 0
-4651 1 0
-4652 2 0
-4653 3 0
-4654 1 0
-4655 2 0
-4656 3 0
-4657 1 0
-4658 2 0
-4659 3 0
-4660 1 0
-4661 2 0
-4662 3 0
-4663 1 0
-4664 2 0
-4665 3 0
-4666 1 0
-4667 2 0
-4668 3 0
-4669 1 0
-4670 2 0
-4671 3 0
-4672 1 0
-4673 2 0
-4674 3 0
-4675 1 0
-4676 2 0
-4677 3 0
-4678 1 0
-4679 2 0
-4680 3 0
-4681 1 0
-4682 2 0
-4683 3 0
-4684 1 0
-4685 2 0
-4686 3 0
-4687 1 0
-4688 2 0
-4689 3 0
-4690 1 0
-4691 2 0
-4692 3 0
-4693 1 0
-4694 2 0
-4695 3 0
-4696 1 0
-4697 2 0
-4698 3 0
-4699 1 0
-4700 2 0
-4701 3 0
-4702 1 0
-4703 2 0
-4704 3 0
-4705 1 0
-4706 2 0
-4707 3 0
-4708 1 0
-4709 2 0
-4710 3 0
-4711 1 0
-4712 2 0
-4713 3 0
-4714 1 0
-4715 2 0
-4716 3 0
-4717 1 0
-4718 2 0
-4719 3 0
-4720 1 0
-4721 2 0
-4722 3 0
-4723 1 0
-4724 2 0
-4725 3 0
-4726 1 0
-4727 2 0
-4728 3 0
-4729 1 0
-4730 2 0
-4731 3 0
-4732 1 0
-4733 2 0
-4734 3 0
-4735 1 0
-4736 2 0
-4737 3 0
-4738 1 0
-4739 2 0
-4740 3 0
-4741 1 0
-4742 2 0
-4743 3 0
-4744 1 0
-4745 2 0
-4746 3 0
-4747 1 0
-4748 2 0
-4749 3 0
-4750 1 0
-4751 2 0
-4752 3 0
-4753 1 0
-4754 2 0
-4755 3 0
-4756 1 0
-4757 2 0
-4758 3 0
-4759 1 0
-4760 2 0
-4761 3 0
-4762 1 0
-4763 2 0
-4764 3 0
-4765 1 0
-4766 2 0
-4767 3 0
-4768 1 0
-4769 2 0
-4770 3 0
-4771 1 0
-4772 2 0
-4773 3 0
-4774 1 0
-4775 2 0
-4776 3 0
-4777 1 0
-4778 2 0
-4779 3 0
-4780 1 0
-4781 2 0
-4782 3 0
-4783 1 0
-4784 2 0
-4785 3 0
-4786 1 0
-4787 2 0
-4788 3 0
-4789 1 0
-4790 2 0
-4791 3 0
-4792 1 0
-4793 2 0
-4794 3 0
-4795 1 0
-4796 2 0
-4797 3 0
-4798 1 0
-4799 2 0
-4800 3 0
-4801 1 0
-4802 2 0
-4803 3 0
-4804 1 0
-4805 2 0
-4806 3 0
-4807 1 0
-4808 2 0
-4809 3 0
-4810 1 0
-4811 2 0
-4812 3 0
-4813 1 0
-4814 2 0
-4815 3 0
-4816 1 0
-4817 2 0
-4818 3 0
-4819 1 0
-4820 2 0
-4821 3 0
-4822 1 0
-4823 2 0
-4824 3 0
-4825 1 0
-4826 2 0
-4827 3 0
-4828 1 0
-4829 2 0
-4830 3 0
-4831 1 0
-4832 2 0
-4833 3 0
-4834 1 0
-4835 2 0
-4836 3 0
-4837 1 0
-4838 2 0
-4839 3 0
-4840 1 0
-4841 2 0
-4842 3 0
-4843 1 0
-4844 2 0
-4845 3 0
-4846 1 0
-4847 2 0
-4848 3 0
-4849 1 0
-4850 2 0
-4851 3 0
-4852 1 0
-4853 2 0
-4854 3 0
-4855 1 0
-4856 2 0
-4857 3 0
-4858 1 0
-4859 2 0
-4860 3 0
-4861 1 0
-4862 2 0
-4863 3 0
-4864 1 0
-4865 2 0
-4866 3 0
-4867 1 0
-4868 2 0
-4869 3 0
-4870 1 0
-4871 2 0
-4872 3 0
-4873 1 0
-4874 2 0
-4875 3 0
-4876 1 0
-4877 2 0
-4878 3 0
-4879 1 0
-4880 2 0
-4881 3 0
-4882 1 0
-4883 2 0
-4884 3 0
-4885 1 0
-4886 2 0
-4887 3 0
-4888 1 0
-4889 2 0
-4890 3 0
-4891 1 0
-4892 2 0
-4893 3 0
-4894 1 0
-4895 2 0
-4896 3 0
-4897 1 0
-4898 2 0
-4899 3 0
-4900 1 0
-4901 2 0
-4902 3 0
-4903 1 0
-4904 2 0
-4905 3 0
-4906 1 0
-4907 2 0
-4908 3 0
-4909 1 0
-4910 2 0
-4911 3 0
-4912 1 0
-4913 2 0
-4914 3 0
-4915 1 0
-4916 2 0
-4917 3 0
-4918 1 0
-4919 2 0
-4920 3 0
-4921 1 0
-4922 2 0
-4923 3 0
-4924 1 0
-4925 2 0
-4926 3 0
-4927 1 0
-4928 2 0
-4929 3 0
-4930 1 0
-4931 2 0
-4932 3 0
-4933 1 0
-4934 2 0
-4935 3 0
-4936 1 0
-4937 2 0
-4938 3 0
-4939 1 0
-4940 2 0
-4941 3 0
-4942 1 0
-4943 2 0
-4944 3 0
-4945 1 0
-4946 2 0
-4947 3 0
-4948 1 0
-4949 2 0
-4950 3 0
-4951 1 0
-4952 2 0
-4953 3 0
-4954 1 0
-4955 2 0
-4956 3 0
-4957 1 0
-4958 2 0
-4959 3 0
-4960 1 0
-4961 2 0
-4962 3 0
-4963 1 0
-4964 2 0
-4965 3 0
-4966 1 0
-4967 2 0
-4968 3 0
-4969 1 0
-4970 2 0
-4971 3 0
-4972 1 0
-4973 2 0
-4974 3 0
-4975 1 0
-4976 2 0
-4977 3 0
-4978 1 0
-4979 2 0
-4980 3 0
-4981 1 0
-4982 2 0
-4983 3 0
-4984 1 0
-4985 2 0
-4986 3 0
-4987 1 0
-4988 2 0
-4989 3 0
-4990 1 0
-4991 2 0
-4992 3 0
-4993 1 0
-4994 2 0
-4995 3 0
-4996 1 0
-4997 2 0
-4998 3 0
-4999 1 0
-5000 2 0
-5001 3 0
-5002 1 0
-5003 2 0
-5004 3 0
-5005 1 0
-5006 2 0
-5007 3 0
-5008 1 0
-5009 2 0
-5010 3 0
-5011 1 0
-5012 2 0
-5013 3 0
-5014 1 0
-5015 2 0
-5016 3 0
-5017 1 0
-5018 2 0
-5019 3 0
-5020 1 0
-5021 2 0
-5022 3 0
-5023 1 0
-5024 2 0
-5025 3 0
-5026 1 0
-5027 2 0
-5028 3 0
-5029 1 0
-5030 2 0
-5031 3 0
-5032 1 0
-5033 2 0
-5034 3 0
-5035 1 0
-5036 2 0
-5037 3 0
-5038 1 0
-5039 2 0
-5040 3 0
-5041 1 0
-5042 2 0
-5043 3 0
-5044 1 0
-5045 2 0
-5046 3 0
-5047 1 0
-5048 2 0
-5049 3 0
-5050 1 0
-5051 2 0
-5052 3 0
-5053 1 0
-5054 2 0
-5055 3 0
-5056 1 0
-5057 2 0
-5058 3 0
-5059 1 0
-5060 2 0
-5061 3 0
-5062 1 0
-5063 2 0
-5064 3 0
-5065 1 0
-5066 2 0
-5067 3 0
-5068 1 0
-5069 2 0
-5070 3 0
-5071 1 0
-5072 2 0
-5073 3 0
-5074 1 0
-5075 2 0
-5076 3 0
-5077 1 0
-5078 2 0
-5079 3 0
-5080 1 0
-5081 2 0
-5082 3 0
-5083 1 0
-5084 2 0
-5085 3 0
-5086 1 0
-5087 2 0
-5088 3 0
-5089 1 0
-5090 2 0
-5091 3 0
-5092 1 0
-5093 2 0
-5094 3 0
-5095 1 0
-5096 2 0
-5097 3 0
-5098 1 0
-5099 2 0
-5100 3 0
-5101 1 0
-5102 2 0
-5103 3 0
-5104 1 0
-5105 2 0
-5106 3 0
-5107 1 0
-5108 2 0
-5109 3 0
-5110 1 0
-5111 2 0
-5112 3 0
-5113 1 0
-5114 2 0
-5115 3 0
-5116 1 0
-5117 2 0
-5118 3 0
-5119 1 0
-5120 2 0
-5121 3 0
-5122 1 0
-5123 2 0
-5124 3 0
-5125 1 0
-5126 2 0
-5127 3 0
-5128 1 0
-5129 2 0
-5130 3 0
-5131 1 0
-5132 2 0
-5133 3 0
-5134 1 0
-5135 2 0
-5136 3 0
-5137 1 0
-5138 2 0
-5139 3 0
-5140 1 0
-5141 2 0
-5142 3 0
-5143 1 0
-5144 2 0
-5145 3 0
-5146 1 0
-5147 2 0
-5148 3 0
-5149 1 0
-5150 2 0
-5151 3 0
-5152 1 0
-5153 2 0
-5154 3 0
-5155 1 0
-5156 2 0
-5157 3 0
-5158 1 0
-5159 2 0
-5160 3 0
-5161 1 0
-5162 2 0
-5163 3 0
-5164 1 0
-5165 2 0
-5166 3 0
-5167 1 0
-5168 2 0
-5169 3 0
-5170 1 0
-5171 2 0
-5172 3 0
-5173 1 0
-5174 2 0
-5175 3 0
-5176 1 0
-5177 2 0
-5178 3 0
-5179 1 0
-5180 2 0
-5181 3 0
-5182 1 0
-5183 2 0
-5184 3 0
-5185 1 0
-5186 2 0
-5187 3 0
-5188 1 0
-5189 2 0
-5190 3 0
-5191 1 0
-5192 2 0
-5193 3 0
-5194 1 0
-5195 2 0
-5196 3 0
-5197 1 0
-5198 2 0
-5199 3 0
-5200 1 0
-5201 2 0
-5202 3 0
-5203 1 0
-5204 2 0
-5205 3 0
-5206 1 0
-5207 2 0
-5208 3 0
-5209 1 0
-5210 2 0
-5211 3 0
-5212 1 0
-5213 2 0
-5214 3 0
-5215 1 0
-5216 2 0
-5217 3 0
-5218 1 0
-5219 2 0
-5220 3 0
-5221 1 0
-5222 2 0
-5223 3 0
-5224 1 0
-5225 2 0
-5226 3 0
-5227 1 0
-5228 2 0
-5229 3 0
-5230 1 0
-5231 2 0
-5232 3 0
-5233 1 0
-5234 2 0
-5235 3 0
-5236 1 0
-5237 2 0
-5238 3 0
-5239 1 0
-5240 2 0
-5241 3 0
-5242 1 0
-5243 2 0
-5244 3 0
-5245 1 0
-5246 2 0
-5247 3 0
-5248 1 0
-5249 2 0
-5250 3 0
-5251 1 0
-5252 2 0
-5253 3 0
-5254 1 0
-5255 2 0
-5256 3 0
-5257 1 0
-5258 2 0
-5259 3 0
-5260 1 0
-5261 2 0
-5262 3 0
-5263 1 0
-5264 2 0
-5265 3 0
-5266 1 0
-5267 2 0
-5268 3 0
-5269 1 0
-5270 2 0
-5271 3 0
-5272 1 0
-5273 2 0
-5274 3 0
-5275 1 0
-5276 2 0
-5277 3 0
-5278 1 0
-5279 2 0
-5280 3 0
-5281 1 0
-5282 2 0
-5283 3 0
-5284 1 0
-5285 2 0
-5286 3 0
-5287 1 0
-5288 2 0
-5289 3 0
-5290 1 0
-5291 2 0
-5292 3 0
-5293 1 0
-5294 2 0
-5295 3 0
-5296 1 0
-5297 2 0
-5298 3 0
-5299 1 0
-5300 2 0
-5301 3 0
-5302 1 0
-5303 2 0
-5304 3 0
-5305 1 0
-5306 2 0
-5307 3 0
-5308 1 0
-5309 2 0
-5310 3 0
-5311 1 0
-5312 2 0
-5313 3 0
-5314 1 0
-5315 2 0
-5316 3 0
-5317 1 0
-5318 2 0
-5319 3 0
-5320 1 0
-5321 2 0
-5322 3 0
-5323 1 0
-5324 2 0
-5325 3 0
-5326 1 0
-5327 2 0
-5328 3 0
-5329 1 0
-5330 2 0
-5331 3 0
-5332 1 0
-5333 2 0
-5334 3 0
-5335 1 0
-5336 2 0
-5337 3 0
-5338 1 0
-5339 2 0
-5340 3 0
-5341 1 0
-5342 2 0
-5343 3 0
-5344 1 0
-5345 2 0
-5346 3 0
-5347 1 0
-5348 2 0
-5349 3 0
-5350 1 0
-5351 2 0
-5352 3 0
-5353 1 0
-5354 2 0
-5355 3 0
-5356 1 0
-5357 2 0
-5358 3 0
-5359 1 0
-5360 2 0
-5361 3 0
-5362 1 0
-5363 2 0
-5364 3 0
-5365 1 0
-5366 2 0
-5367 3 0
-5368 1 0
-5369 2 0
-5370 3 0
-5371 1 0
-5372 2 0
-5373 3 0
-5374 1 0
-5375 2 0
-5376 3 0
-5377 1 0
-5378 2 0
-5379 3 0
-5380 1 0
-5381 2 0
-5382 3 0
-5383 1 0
-5384 2 0
-5385 3 0
-5386 1 0
-5387 2 0
-5388 3 0
-5389 1 0
-5390 2 0
-5391 3 0
-5392 1 0
-5393 2 0
-5394 3 0
-5395 1 0
-5396 2 0
-5397 3 0
-5398 1 0
-5399 2 0
-5400 3 0
-5401 1 0
-5402 2 0
-5403 3 0
-5404 1 0
-5405 2 0
-5406 3 0
-5407 1 0
-5408 2 0
-5409 3 0
-5410 1 0
-5411 2 0
-5412 3 0
-5413 1 0
-5414 2 0
-5415 3 0
-5416 1 0
-5417 2 0
-5418 3 0
-5419 1 0
-5420 2 0
-5421 3 0
-5422 1 0
-5423 2 0
-5424 3 0
-5425 1 0
-5426 2 0
-5427 3 0
-5428 1 0
-5429 2 0
-5430 3 0
-5431 1 0
-5432 2 0
-5433 3 0
-5434 1 0
-5435 2 0
-5436 3 0
-5437 1 0
-5438 2 0
-5439 3 0
-5440 1 0
-5441 2 0
-5442 3 0
-5443 1 0
-5444 2 0
-5445 3 0
-5446 1 0
-5447 2 0
-5448 3 0
-5449 1 0
-5450 2 0
-5451 3 0
-5452 1 0
-5453 2 0
-5454 3 0
-5455 1 0
-5456 2 0
-5457 3 0
-5458 1 0
-5459 2 0
-5460 3 0
-5461 1 0
-5462 2 0
-5463 3 0
-5464 1 0
-5465 2 0
-5466 3 0
-5467 1 0
-5468 2 0
-5469 3 0
-5470 1 0
-5471 2 0
-5472 3 0
-5473 1 0
-5474 2 0
-5475 3 0
-5476 1 0
-5477 2 0
-5478 3 0
-5479 1 0
-5480 2 0
-5481 3 0
-5482 1 0
-5483 2 0
-5484 3 0
-5485 1 0
-5486 2 0
-5487 3 0
-5488 1 0
-5489 2 0
-5490 3 0
-5491 1 0
-5492 2 0
-5493 3 0
-5494 1 0
-5495 2 0
-5496 3 0
-5497 1 0
-5498 2 0
-5499 3 0
-5500 1 0
-5501 2 0
-5502 3 0
-5503 1 0
-5504 2 0
-5505 3 0
-5506 1 0
-5507 2 0
-5508 3 0
-5509 1 0
-5510 2 0
-5511 3 0
-5512 1 0
-5513 2 0
-5514 3 0
-5515 1 0
-5516 2 0
-5517 3 0
-5518 1 0
-5519 2 0
-5520 3 0
-5521 1 0
-5522 2 0
-5523 3 0
-5524 1 0
-5525 2 0
-5526 3 0
-5527 1 0
-5528 2 0
-5529 3 0
-5530 1 0
-5531 2 0
-5532 3 0
-5533 1 0
-5534 2 0
-5535 3 0
-5536 1 0
-5537 2 0
-5538 3 0
-5539 1 0
-5540 2 0
-5541 3 0
-5542 1 0
-5543 2 0
-5544 3 0
-5545 1 0
-5546 2 0
-5547 3 0
-5548 1 0
-5549 2 0
-5550 3 0
-5551 1 0
-5552 2 0
-5553 3 0
-5554 1 0
-5555 2 0
-5556 3 0
-5557 1 0
-5558 2 0
-5559 3 0
-5560 1 0
-5561 2 0
-5562 3 0
-5563 1 0
-5564 2 0
-5565 3 0
-5566 1 0
-5567 2 0
-5568 3 0
-5569 1 0
-5570 2 0
-5571 3 0
-5572 1 0
-5573 2 0
-5574 3 0
-5575 1 0
-5576 2 0
-5577 3 0
-5578 1 0
-5579 2 0
-5580 3 0
-5581 1 0
-5582 2 0
-5583 3 0
-5584 1 0
-5585 2 0
-5586 3 0
-5587 1 0
-5588 2 0
-5589 3 0
-5590 1 0
-5591 2 0
-5592 3 0
-5593 1 0
-5594 2 0
-5595 3 0
-5596 1 0
-5597 2 0
-5598 3 0
-5599 1 0
-5600 2 0
-5601 3 0
-5602 1 0
-5603 2 0
-5604 3 0
-5605 1 0
-5606 2 0
-5607 3 0
-5608 1 0
-5609 2 0
-5610 3 0
-5611 1 0
-5612 2 0
-5613 3 0
-5614 1 0
-5615 2 0
-5616 3 0
-5617 1 0
-5618 2 0
-5619 3 0
-5620 1 0
-5621 2 0
-5622 3 0
-5623 1 0
-5624 2 0
-5625 3 0
-5626 1 0
-5627 2 0
-5628 3 0
-5629 1 0
-5630 2 0
-5631 3 0
-5632 1 0
-5633 2 0
-5634 3 0
-5635 1 0
-5636 2 0
-5637 3 0
-5638 1 0
-5639 2 0
-5640 3 0
-5641 1 0
-5642 2 0
-5643 3 0
-5644 1 0
-5645 2 0
-5646 3 0
-5647 1 0
-5648 2 0
-5649 3 0
-5650 1 0
-5651 2 0
-5652 3 0
-5653 1 0
-5654 2 0
-5655 3 0
-5656 1 0
-5657 2 0
-5658 3 0
-5659 1 0
-5660 2 0
-5661 3 0
-5662 1 0
-5663 2 0
-5664 3 0
-5665 1 0
-5666 2 0
-5667 3 0
-5668 1 0
-5669 2 0
-5670 3 0
-5671 1 0
-5672 2 0
-5673 3 0
-5674 1 0
-5675 2 0
-5676 3 0
-5677 1 0
-5678 2 0
-5679 3 0
-5680 1 0
-5681 2 0
-5682 3 0
-5683 1 0
-5684 2 0
-5685 3 0
-5686 1 0
-5687 2 0
-5688 3 0
-5689 1 0
-5690 2 0
-5691 3 0
-5692 1 0
-5693 2 0
-5694 3 0
-5695 1 0
-5696 2 0
-5697 3 0
-5698 1 0
-5699 2 0
-5700 3 0
-5701 1 0
-5702 2 0
-5703 3 0
-5704 1 0
-5705 2 0
-5706 3 0
-5707 1 0
-5708 2 0
-5709 3 0
-5710 1 0
-5711 2 0
-5712 3 0
-5713 1 0
-5714 2 0
-5715 3 0
-5716 1 0
-5717 2 0
-5718 3 0
-5719 1 0
-5720 2 0
-5721 3 0
-5722 1 0
-5723 2 0
-5724 3 0
-5725 1 0
-5726 2 0
-5727 3 0
-5728 1 0
-5729 2 0
-5730 3 0
-5731 1 0
-5732 2 0
-5733 3 0
-5734 1 0
-5735 2 0
-5736 3 0
-5737 1 0
-5738 2 0
-5739 3 0
-5740 1 0
-5741 2 0
-5742 3 0
-5743 1 0
-5744 2 0
-5745 3 0
-5746 1 0
-5747 2 0
-5748 3 0
-5749 1 0
-5750 2 0
-5751 3 0
-5752 1 0
-5753 2 0
-5754 3 0
-5755 1 0
-5756 2 0
-5757 3 0
-5758 1 0
-5759 2 0
-5760 3 0
-5761 1 0
-5762 2 0
-5763 3 0
-5764 1 0
-5765 2 0
-5766 3 0
-5767 1 0
-5768 2 0
-5769 3 0
-5770 1 0
-5771 2 0
-5772 3 0
-5773 1 0
-5774 2 0
-5775 3 0
-5776 1 0
-5777 2 0
-5778 3 0
-5779 1 0
-5780 2 0
-5781 3 0
-5782 1 0
-5783 2 0
-5784 3 0
-5785 1 0
-5786 2 0
-5787 3 0
-5788 1 0
-5789 2 0
-5790 3 0
-5791 1 0
-5792 2 0
-5793 3 0
-5794 1 0
-5795 2 0
-5796 3 0
-5797 1 0
-5798 2 0
-5799 3 0
-5800 1 0
-5801 2 0
-5802 3 0
-5803 1 0
-5804 2 0
-5805 3 0
-5806 1 0
-5807 2 0
-5808 3 0
-5809 1 0
-5810 2 0
-5811 3 0
-5812 1 0
-5813 2 0
-5814 3 0
-5815 1 0
-5816 2 0
-5817 3 0
-5818 1 0
-5819 2 0
-5820 3 0
-5821 1 0
-5822 2 0
-5823 3 0
-5824 1 0
-5825 2 0
-5826 3 0
-5827 1 0
-5828 2 0
-5829 3 0
-5830 1 0
-5831 2 0
-5832 3 0
-5833 1 0
-5834 2 0
-5835 3 0
-5836 1 0
-5837 2 0
-5838 3 0
-5839 1 0
-5840 2 0
-5841 3 0
-5842 1 0
-5843 2 0
-5844 3 0
-5845 1 0
-5846 2 0
-5847 3 0
-5848 1 0
-5849 2 0
-5850 3 0
-5851 1 0
-5852 2 0
-5853 3 0
-5854 1 0
-5855 2 0
-5856 3 0
-5857 1 0
-5858 2 0
-5859 3 0
-5860 1 0
-5861 2 0
-5862 3 0
-5863 1 0
-5864 2 0
-5865 3 0
-5866 1 0
-5867 2 0
-5868 3 0
-5869 1 0
-5870 2 0
-5871 3 0
-5872 1 0
-5873 2 0
-5874 3 0
-5875 1 0
-5876 2 0
-5877 3 0
-5878 1 0
-5879 2 0
-5880 3 0
-5881 1 0
-5882 2 0
-5883 3 0
-5884 1 0
-5885 2 0
-5886 3 0
-5887 1 0
-5888 2 0
-5889 3 0
-5890 1 0
-5891 2 0
-5892 3 0
-5893 1 0
-5894 2 0
-5895 3 0
-5896 1 0
-5897 2 0
-5898 3 0
-5899 1 0
-5900 2 0
-5901 3 0
-5902 1 0
-5903 2 0
-5904 3 0
-5905 1 0
-5906 2 0
-5907 3 0
-5908 1 0
-5909 2 0
-5910 3 0
-5911 1 0
-5912 2 0
-5913 3 0
-5914 1 0
-5915 2 0
-5916 3 0
-5917 1 0
-5918 2 0
-5919 3 0
-5920 1 0
-5921 2 0
-5922 3 0
-5923 1 0
-5924 2 0
-5925 3 0
-5926 1 0
-5927 2 0
-5928 3 0
-5929 1 0
-5930 2 0
-5931 3 0
-5932 1 0
-5933 2 0
-5934 3 0
-5935 1 0
-5936 2 0
-5937 3 0
-5938 1 0
-5939 2 0
-5940 3 0
-5941 1 0
-5942 2 0
-5943 3 0
-5944 1 0
-5945 2 0
-5946 3 0
-5947 1 0
-5948 2 0
-5949 3 0
-5950 1 0
-5951 2 0
-5952 3 0
-5953 1 0
-5954 2 0
-5955 3 0
-5956 1 0
-5957 2 0
-5958 3 0
-5959 1 0
-5960 2 0
-5961 3 0
-5962 1 0
-5963 2 0
-5964 3 0
-5965 1 0
-5966 2 0
-5967 3 0
-5968 1 0
-5969 2 0
-5970 3 0
-5971 1 0
-5972 2 0
-5973 3 0
-5974 1 0
-5975 2 0
-5976 3 0
-5977 1 0
-5978 2 0
-5979 3 0
-5980 1 0
-5981 2 0
-5982 3 0
-5983 1 0
-5984 2 0
-5985 3 0
-5986 1 0
-5987 2 0
-5988 3 0
-5989 1 0
-5990 2 0
-5991 3 0
-5992 1 0
-5993 2 0
-5994 3 0
-5995 1 0
-5996 2 0
-5997 3 0
-5998 1 0
-5999 2 0
-6000 3 0
-6001 1 0
-6002 2 0
-6003 3 0
-6004 1 0
-6005 2 0
-6006 3 0
-6007 1 0
-6008 2 0
-6009 3 0
-6010 1 0
-6011 2 0
-6012 3 0
-6013 1 0
-6014 2 0
-6015 3 0
-6016 1 0
-6017 2 0
-6018 3 0
-6019 1 0
-6020 2 0
-6021 3 0
-6022 1 0
-6023 2 0
-6024 3 0
-6025 1 0
-6026 2 0
-6027 3 0
-6028 1 0
-6029 2 0
-6030 3 0
-6031 1 0
-6032 2 0
-6033 3 0
-6034 1 0
-6035 2 0
-6036 3 0
-6037 1 0
-6038 2 0
-6039 3 0
-6040 1 0
-6041 2 0
-6042 3 0
-6043 1 0
-6044 2 0
-6045 3 0
-6046 1 0
-6047 2 0
-6048 3 0
-6049 1 0
-6050 2 0
-6051 3 0
-6052 1 0
-6053 2 0
-6054 3 0
-6055 1 0
-6056 2 0
-6057 3 0
-6058 1 0
-6059 2 0
-6060 3 0
-6061 1 0
-6062 2 0
-6063 3 0
-6064 1 0
-6065 2 0
-6066 3 0
-6067 1 0
-6068 2 0
-6069 3 0
-6070 1 0
-6071 2 0
-6072 3 0
-6073 1 0
-6074 2 0
-6075 3 0
-6076 1 0
-6077 2 0
-6078 3 0
-6079 1 0
-6080 2 0
-6081 3 0
-6082 1 0
-6083 2 0
-6084 3 0
-6085 1 0
-6086 2 0
-6087 3 0
-6088 1 0
-6089 2 0
-6090 3 0
-6091 1 0
-6092 2 0
-6093 3 0
-6094 1 0
-6095 2 0
-6096 3 0
-6097 1 0
-6098 2 0
-6099 3 0
-6100 1 0
-6101 2 0
-6102 3 0
-6103 1 0
-6104 2 0
-6105 3 0
-6106 1 0
-6107 2 0
-6108 3 0
-6109 1 0
-6110 2 0
-6111 3 0
-6112 1 0
-6113 2 0
-6114 3 0
-6115 1 0
-6116 2 0
-6117 3 0
-6118 1 0
-6119 2 0
-6120 3 0
-6121 1 0
-6122 2 0
-6123 3 0
-6124 1 0
-6125 2 0
-6126 3 0
-6127 1 0
-6128 2 0
-6129 3 0
-6130 1 0
-6131 2 0
-6132 3 0
-6133 1 0
-6134 2 0
-6135 3 0
-6136 1 0
-6137 2 0
-6138 3 0
-6139 1 0
-6140 2 0
-6141 3 0
-6142 1 0
-6143 2 0
-6144 3 0
-6145 1 0
-6146 2 0
-6147 3 0
-5 -8 -6148 -2 1 0
-5 -9 -6148 -2 -3 1 0
-6 -8 -6148 -3 -2 1 0
-6 -9 -6148 -3 1 0
-4 -7 -6149 -1 2 0
-4 -9 -6149 -1 -3 2 0
-6 -7 -6149 -3 -1 2 0
-6 -9 -6149 -3 2 0
-4 -7 -6150 -1 3 0
-4 -8 -6150 -1 -2 3 0
-5 -7 -6150 -2 -1 3 0
-5 -8 -6150 -2 3 0
-11 -14 -6151 -2 1 0
-11 -15 -6151 -2 -3 1 0
-12 -14 -6151 -3 -2 1 0
-12 -15 -6151 -3 1 0
-10 -13 -6152 -1 2 0
-10 -15 -6152 -1 -3 2 0
-12 -13 -6152 -3 -1 2 0
-12 -15 -6152 -3 2 0
-10 -13 -6153 -1 3 0
-10 -14 -6153 -1 -2 3 0
-11 -13 -6153 -2 -1 3 0
-11 -14 -6153 -2 3 0
-17 -20 -6154 -2 1 0
-17 -21 -6154 -2 -3 1 0
-18 -20 -6154 -3 -2 1 0
-18 -21 -6154 -3 1 0
-16 -19 -6155 -1 2 0
-16 -21 -6155 -1 -3 2 0
-18 -19 -6155 -3 -1 2 0
-18 -21 -6155 -3 2 0
-16 -19 -6156 -1 3 0
-16 -20 -6156 -1 -2 3 0
-17 -19 -6156 -2 -1 3 0
-17 -20 -6156 -2 3 0
-23 -26 -6157 -2 1 0
-23 -27 -6157 -2 -3 1 0
-24 -26 -6157 -3 -2 1 0
-24 -27 -6157 -3 1 0
-22 -25 -6158 -1 2 0
-22 -27 -6158 -1 -3 2 0
-24 -25 -6158 -3 -1 2 0
-24 -27 -6158 -3 2 0
-22 -25 -6159 -1 3 0
-22 -26 -6159 -1 -2 3 0
-23 -25 -6159 -2 -1 3 0
-23 -26 -6159 -2 3 0
-29 -32 -6160 -2 1 0
-29 -33 -6160 -2 -3 1 0
-30 -32 -6160 -3 -2 1 0
-30 -33 -6160 -3 1 0
-28 -31 -6161 -1 2 0
-28 -33 -6161 -1 -3 2 0
-30 -31 -6161 -3 -1 2 0
-30 -33 -6161 -3 2 0
-28 -31 -6162 -1 3 0
-28 -32 -6162 -1 -2 3 0
-29 -31 -6162 -2 -1 3 0
-29 -32 -6162 -2 3 0
-35 -38 -6163 -2 1 0
-35 -39 -6163 -2 -3 1 0
-36 -38 -6163 -3 -2 1 0
-36 -39 -6163 -3 1 0
-34 -37 -6164 -1 2 0
-34 -39 -6164 -1 -3 2 0
-36 -37 -6164 -3 -1 2 0
-36 -39 -6164 -3 2 0
-34 -37 -6165 -1 3 0
-34 -38 -6165 -1 -2 3 0
-35 -37 -6165 -2 -1 3 0
-35 -38 -6165 -2 3 0
-41 -44 -6166 -2 1 0
-41 -45 -6166 -2 -3 1 0
-42 -44 -6166 -3 -2 1 0
-42 -45 -6166 -3 1 0
-40 -43 -6167 -1 2 0
-40 -45 -6167 -1 -3 2 0
-42 -43 -6167 -3 -1 2 0
-42 -45 -6167 -3 2 0
-40 -43 -6168 -1 3 0
-40 -44 -6168 -1 -2 3 0
-41 -43 -6168 -2 -1 3 0
-41 -44 -6168 -2 3 0
-47 -50 -6169 -2 1 0
-47 -51 -6169 -2 -3 1 0
-48 -50 -6169 -3 -2 1 0
-48 -51 -6169 -3 1 0
-46 -49 -6170 -1 2 0
-46 -51 -6170 -1 -3 2 0
-48 -49 -6170 -3 -1 2 0
-48 -51 -6170 -3 2 0
-46 -49 -6171 -1 3 0
-46 -50 -6171 -1 -2 3 0
-47 -49 -6171 -2 -1 3 0
-47 -50 -6171 -2 3 0
-53 -56 -6172 -2 1 0
-53 -57 -6172 -2 -3 1 0
-54 -56 -6172 -3 -2 1 0
-54 -57 -6172 -3 1 0
-52 -55 -6173 -1 2 0
-52 -57 -6173 -1 -3 2 0
-54 -55 -6173 -3 -1 2 0
-54 -57 -6173 -3 2 0
-52 -55 -6174 -1 3 0
-52 -56 -6174 -1 -2 3 0
-53 -55 -6174 -2 -1 3 0
-53 -56 -6174 -2 3 0
-59 -62 -6175 -2 1 0
-59 -63 -6175 -2 -3 1 0
-60 -62 -6175 -3 -2 1 0
-60 -63 -6175 -3 1 0
-58 -61 -6176 -1 2 0
-58 -63 -6176 -1 -3 2 0
-60 -61 -6176 -3 -1 2 0
-60 -63 -6176 -3 2 0
-58 -61 -6177 -1 3 0
-58 -62 -6177 -1 -2 3 0
-59 -61 -6177 -2 -1 3 0
-59 -62 -6177 -2 3 0
-65 -68 -6178 -2 1 0
-65 -69 -6178 -2 -3 1 0
-66 -68 -6178 -3 -2 1 0
-66 -69 -6178 -3 1 0
-64 -67 -6179 -1 2 0
-64 -69 -6179 -1 -3 2 0
-66 -67 -6179 -3 -1 2 0
-66 -69 -6179 -3 2 0
-64 -67 -6180 -1 3 0
-64 -68 -6180 -1 -2 3 0
-65 -67 -6180 -2 -1 3 0
-65 -68 -6180 -2 3 0
-71 -74 -6181 -2 1 0
-71 -75 -6181 -2 -3 1 0
-72 -74 -6181 -3 -2 1 0
-72 -75 -6181 -3 1 0
-70 -73 -6182 -1 2 0
-70 -75 -6182 -1 -3 2 0
-72 -73 -6182 -3 -1 2 0
-72 -75 -6182 -3 2 0
-70 -73 -6183 -1 3 0
-70 -74 -6183 -1 -2 3 0
-71 -73 -6183 -2 -1 3 0
-71 -74 -6183 -2 3 0
-77 -80 -6184 -2 1 0
-77 -81 -6184 -2 -3 1 0
-78 -80 -6184 -3 -2 1 0
-78 -81 -6184 -3 1 0
-76 -79 -6185 -1 2 0
-76 -81 -6185 -1 -3 2 0
-78 -79 -6185 -3 -1 2 0
-78 -81 -6185 -3 2 0
-76 -79 -6186 -1 3 0
-76 -80 -6186 -1 -2 3 0
-77 -79 -6186 -2 -1 3 0
-77 -80 -6186 -2 3 0
-83 -86 -6187 -2 1 0
-83 -87 -6187 -2 -3 1 0
-84 -86 -6187 -3 -2 1 0
-84 -87 -6187 -3 1 0
-82 -85 -6188 -1 2 0
-82 -87 -6188 -1 -3 2 0
-84 -85 -6188 -3 -1 2 0
-84 -87 -6188 -3 2 0
-82 -85 -6189 -1 3 0
-82 -86 -6189 -1 -2 3 0
-83 -85 -6189 -2 -1 3 0
-83 -86 -6189 -2 3 0
-89 -92 -6190 -2 1 0
-89 -93 -6190 -2 -3 1 0
-90 -92 -6190 -3 -2 1 0
-90 -93 -6190 -3 1 0
-88 -91 -6191 -1 2 0
-88 -93 -6191 -1 -3 2 0
-90 -91 -6191 -3 -1 2 0
-90 -93 -6191 -3 2 0
-88 -91 -6192 -1 3 0
-88 -92 -6192 -1 -2 3 0
-89 -91 -6192 -2 -1 3 0
-89 -92 -6192 -2 3 0
-95 -98 -6193 -2 1 0
-95 -99 -6193 -2 -3 1 0
-96 -98 -6193 -3 -2 1 0
-96 -99 -6193 -3 1 0
-94 -97 -6194 -1 2 0
-94 -99 -6194 -1 -3 2 0
-96 -97 -6194 -3 -1 2 0
-96 -99 -6194 -3 2 0
-94 -97 -6195 -1 3 0
-94 -98 -6195 -1 -2 3 0
-95 -97 -6195 -2 -1 3 0
-95 -98 -6195 -2 3 0
-101 -104 -6196 -2 1 0
-101 -105 -6196 -2 -3 1 0
-102 -104 -6196 -3 -2 1 0
-102 -105 -6196 -3 1 0
-100 -103 -6197 -1 2 0
-100 -105 -6197 -1 -3 2 0
-102 -103 -6197 -3 -1 2 0
-102 -105 -6197 -3 2 0
-100 -103 -6198 -1 3 0
-100 -104 -6198 -1 -2 3 0
-101 -103 -6198 -2 -1 3 0
-101 -104 -6198 -2 3 0
-107 -110 -6199 -2 1 0
-107 -111 -6199 -2 -3 1 0
-108 -110 -6199 -3 -2 1 0
-108 -111 -6199 -3 1 0
-106 -109 -6200 -1 2 0
-106 -111 -6200 -1 -3 2 0
-108 -109 -6200 -3 -1 2 0
-108 -111 -6200 -3 2 0
-106 -109 -6201 -1 3 0
-106 -110 -6201 -1 -2 3 0
-107 -109 -6201 -2 -1 3 0
-107 -110 -6201 -2 3 0
-113 -116 -6202 -2 1 0
-113 -117 -6202 -2 -3 1 0
-114 -116 -6202 -3 -2 1 0
-114 -117 -6202 -3 1 0
-112 -115 -6203 -1 2 0
-112 -117 -6203 -1 -3 2 0
-114 -115 -6203 -3 -1 2 0
-114 -117 -6203 -3 2 0
-112 -115 -6204 -1 3 0
-112 -116 -6204 -1 -2 3 0
-113 -115 -6204 -2 -1 3 0
-113 -116 -6204 -2 3 0
-119 -122 -6205 -2 1 0
-119 -123 -6205 -2 -3 1 0
-120 -122 -6205 -3 -2 1 0
-120 -123 -6205 -3 1 0
-118 -121 -6206 -1 2 0
-118 -123 -6206 -1 -3 2 0
-120 -121 -6206 -3 -1 2 0
-120 -123 -6206 -3 2 0
-118 -121 -6207 -1 3 0
-118 -122 -6207 -1 -2 3 0
-119 -121 -6207 -2 -1 3 0
-119 -122 -6207 -2 3 0
-125 -128 -6208 -2 1 0
-125 -129 -6208 -2 -3 1 0
-126 -128 -6208 -3 -2 1 0
-126 -129 -6208 -3 1 0
-124 -127 -6209 -1 2 0
-124 -129 -6209 -1 -3 2 0
-126 -127 -6209 -3 -1 2 0
-126 -129 -6209 -3 2 0
-124 -127 -6210 -1 3 0
-124 -128 -6210 -1 -2 3 0
-125 -127 -6210 -2 -1 3 0
-125 -128 -6210 -2 3 0
-131 -134 -6211 -2 1 0
-131 -135 -6211 -2 -3 1 0
-132 -134 -6211 -3 -2 1 0
-132 -135 -6211 -3 1 0
-130 -133 -6212 -1 2 0
-130 -135 -6212 -1 -3 2 0
-132 -133 -6212 -3 -1 2 0
-132 -135 -6212 -3 2 0
-130 -133 -6213 -1 3 0
-130 -134 -6213 -1 -2 3 0
-131 -133 -6213 -2 -1 3 0
-131 -134 -6213 -2 3 0
-137 -140 -6214 -2 1 0
-137 -141 -6214 -2 -3 1 0
-138 -140 -6214 -3 -2 1 0
-138 -141 -6214 -3 1 0
-136 -139 -6215 -1 2 0
-136 -141 -6215 -1 -3 2 0
-138 -139 -6215 -3 -1 2 0
-138 -141 -6215 -3 2 0
-136 -139 -6216 -1 3 0
-136 -140 -6216 -1 -2 3 0
-137 -139 -6216 -2 -1 3 0
-137 -140 -6216 -2 3 0
-143 -146 -6217 -2 1 0
-143 -147 -6217 -2 -3 1 0
-144 -146 -6217 -3 -2 1 0
-144 -147 -6217 -3 1 0
-142 -145 -6218 -1 2 0
-142 -147 -6218 -1 -3 2 0
-144 -145 -6218 -3 -1 2 0
-144 -147 -6218 -3 2 0
-142 -145 -6219 -1 3 0
-142 -146 -6219 -1 -2 3 0
-143 -145 -6219 -2 -1 3 0
-143 -146 -6219 -2 3 0
-149 -152 -6220 -2 1 0
-149 -153 -6220 -2 -3 1 0
-150 -152 -6220 -3 -2 1 0
-150 -153 -6220 -3 1 0
-148 -151 -6221 -1 2 0
-148 -153 -6221 -1 -3 2 0
-150 -151 -6221 -3 -1 2 0
-150 -153 -6221 -3 2 0
-148 -151 -6222 -1 3 0
-148 -152 -6222 -1 -2 3 0
-149 -151 -6222 -2 -1 3 0
-149 -152 -6222 -2 3 0
-155 -158 -6223 -2 1 0
-155 -159 -6223 -2 -3 1 0
-156 -158 -6223 -3 -2 1 0
-156 -159 -6223 -3 1 0
-154 -157 -6224 -1 2 0
-154 -159 -6224 -1 -3 2 0
-156 -157 -6224 -3 -1 2 0
-156 -159 -6224 -3 2 0
-154 -157 -6225 -1 3 0
-154 -158 -6225 -1 -2 3 0
-155 -157 -6225 -2 -1 3 0
-155 -158 -6225 -2 3 0
-161 -164 -6226 -2 1 0
-161 -165 -6226 -2 -3 1 0
-162 -164 -6226 -3 -2 1 0
-162 -165 -6226 -3 1 0
-160 -163 -6227 -1 2 0
-160 -165 -6227 -1 -3 2 0
-162 -163 -6227 -3 -1 2 0
-162 -165 -6227 -3 2 0
-160 -163 -6228 -1 3 0
-160 -164 -6228 -1 -2 3 0
-161 -163 -6228 -2 -1 3 0
-161 -164 -6228 -2 3 0
-167 -170 -6229 -2 1 0
-167 -171 -6229 -2 -3 1 0
-168 -170 -6229 -3 -2 1 0
-168 -171 -6229 -3 1 0
-166 -169 -6230 -1 2 0
-166 -171 -6230 -1 -3 2 0
-168 -169 -6230 -3 -1 2 0
-168 -171 -6230 -3 2 0
-166 -169 -6231 -1 3 0
-166 -170 -6231 -1 -2 3 0
-167 -169 -6231 -2 -1 3 0
-167 -170 -6231 -2 3 0
-173 -176 -6232 -2 1 0
-173 -177 -6232 -2 -3 1 0
-174 -176 -6232 -3 -2 1 0
-174 -177 -6232 -3 1 0
-172 -175 -6233 -1 2 0
-172 -177 -6233 -1 -3 2 0
-174 -175 -6233 -3 -1 2 0
-174 -177 -6233 -3 2 0
-172 -175 -6234 -1 3 0
-172 -176 -6234 -1 -2 3 0
-173 -175 -6234 -2 -1 3 0
-173 -176 -6234 -2 3 0
-179 -182 -6235 -2 1 0
-179 -183 -6235 -2 -3 1 0
-180 -182 -6235 -3 -2 1 0
-180 -183 -6235 -3 1 0
-178 -181 -6236 -1 2 0
-178 -183 -6236 -1 -3 2 0
-180 -181 -6236 -3 -1 2 0
-180 -183 -6236 -3 2 0
-178 -181 -6237 -1 3 0
-178 -182 -6237 -1 -2 3 0
-179 -181 -6237 -2 -1 3 0
-179 -182 -6237 -2 3 0
-185 -188 -6238 -2 1 0
-185 -189 -6238 -2 -3 1 0
-186 -188 -6238 -3 -2 1 0
-186 -189 -6238 -3 1 0
-184 -187 -6239 -1 2 0
-184 -189 -6239 -1 -3 2 0
-186 -187 -6239 -3 -1 2 0
-186 -189 -6239 -3 2 0
-184 -187 -6240 -1 3 0
-184 -188 -6240 -1 -2 3 0
-185 -187 -6240 -2 -1 3 0
-185 -188 -6240 -2 3 0
-191 -194 -6241 -2 1 0
-191 -195 -6241 -2 -3 1 0
-192 -194 -6241 -3 -2 1 0
-192 -195 -6241 -3 1 0
-190 -193 -6242 -1 2 0
-190 -195 -6242 -1 -3 2 0
-192 -193 -6242 -3 -1 2 0
-192 -195 -6242 -3 2 0
-190 -193 -6243 -1 3 0
-190 -194 -6243 -1 -2 3 0
-191 -193 -6243 -2 -1 3 0
-191 -194 -6243 -2 3 0
-197 -200 -6244 -2 1 0
-197 -201 -6244 -2 -3 1 0
-198 -200 -6244 -3 -2 1 0
-198 -201 -6244 -3 1 0
-196 -199 -6245 -1 2 0
-196 -201 -6245 -1 -3 2 0
-198 -199 -6245 -3 -1 2 0
-198 -201 -6245 -3 2 0
-196 -199 -6246 -1 3 0
-196 -200 -6246 -1 -2 3 0
-197 -199 -6246 -2 -1 3 0
-197 -200 -6246 -2 3 0
-203 -206 -6247 -2 1 0
-203 -207 -6247 -2 -3 1 0
-204 -206 -6247 -3 -2 1 0
-204 -207 -6247 -3 1 0
-202 -205 -6248 -1 2 0
-202 -207 -6248 -1 -3 2 0
-204 -205 -6248 -3 -1 2 0
-204 -207 -6248 -3 2 0
-202 -205 -6249 -1 3 0
-202 -206 -6249 -1 -2 3 0
-203 -205 -6249 -2 -1 3 0
-203 -206 -6249 -2 3 0
-209 -212 -6250 -2 1 0
-209 -213 -6250 -2 -3 1 0
-210 -212 -6250 -3 -2 1 0
-210 -213 -6250 -3 1 0
-208 -211 -6251 -1 2 0
-208 -213 -6251 -1 -3 2 0
-210 -211 -6251 -3 -1 2 0
-210 -213 -6251 -3 2 0
-208 -211 -6252 -1 3 0
-208 -212 -6252 -1 -2 3 0
-209 -211 -6252 -2 -1 3 0
-209 -212 -6252 -2 3 0
-215 -218 -6253 -2 1 0
-215 -219 -6253 -2 -3 1 0
-216 -218 -6253 -3 -2 1 0
-216 -219 -6253 -3 1 0
-214 -217 -6254 -1 2 0
-214 -219 -6254 -1 -3 2 0
-216 -217 -6254 -3 -1 2 0
-216 -219 -6254 -3 2 0
-214 -217 -6255 -1 3 0
-214 -218 -6255 -1 -2 3 0
-215 -217 -6255 -2 -1 3 0
-215 -218 -6255 -2 3 0
-221 -224 -6256 -2 1 0
-221 -225 -6256 -2 -3 1 0
-222 -224 -6256 -3 -2 1 0
-222 -225 -6256 -3 1 0
-220 -223 -6257 -1 2 0
-220 -225 -6257 -1 -3 2 0
-222 -223 -6257 -3 -1 2 0
-222 -225 -6257 -3 2 0
-220 -223 -6258 -1 3 0
-220 -224 -6258 -1 -2 3 0
-221 -223 -6258 -2 -1 3 0
-221 -224 -6258 -2 3 0
-227 -230 -6259 -2 1 0
-227 -231 -6259 -2 -3 1 0
-228 -230 -6259 -3 -2 1 0
-228 -231 -6259 -3 1 0
-226 -229 -6260 -1 2 0
-226 -231 -6260 -1 -3 2 0
-228 -229 -6260 -3 -1 2 0
-228 -231 -6260 -3 2 0
-226 -229 -6261 -1 3 0
-226 -230 -6261 -1 -2 3 0
-227 -229 -6261 -2 -1 3 0
-227 -230 -6261 -2 3 0
-233 -236 -6262 -2 1 0
-233 -237 -6262 -2 -3 1 0
-234 -236 -6262 -3 -2 1 0
-234 -237 -6262 -3 1 0
-232 -235 -6263 -1 2 0
-232 -237 -6263 -1 -3 2 0
-234 -235 -6263 -3 -1 2 0
-234 -237 -6263 -3 2 0
-232 -235 -6264 -1 3 0
-232 -236 -6264 -1 -2 3 0
-233 -235 -6264 -2 -1 3 0
-233 -236 -6264 -2 3 0
-239 -242 -6265 -2 1 0
-239 -243 -6265 -2 -3 1 0
-240 -242 -6265 -3 -2 1 0
-240 -243 -6265 -3 1 0
-238 -241 -6266 -1 2 0
-238 -243 -6266 -1 -3 2 0
-240 -241 -6266 -3 -1 2 0
-240 -243 -6266 -3 2 0
-238 -241 -6267 -1 3 0
-238 -242 -6267 -1 -2 3 0
-239 -241 -6267 -2 -1 3 0
-239 -242 -6267 -2 3 0
-245 -248 -6268 -2 1 0
-245 -249 -6268 -2 -3 1 0
-246 -248 -6268 -3 -2 1 0
-246 -249 -6268 -3 1 0
-244 -247 -6269 -1 2 0
-244 -249 -6269 -1 -3 2 0
-246 -247 -6269 -3 -1 2 0
-246 -249 -6269 -3 2 0
-244 -247 -6270 -1 3 0
-244 -248 -6270 -1 -2 3 0
-245 -247 -6270 -2 -1 3 0
-245 -248 -6270 -2 3 0
-251 -254 -6271 -2 1 0
-251 -255 -6271 -2 -3 1 0
-252 -254 -6271 -3 -2 1 0
-252 -255 -6271 -3 1 0
-250 -253 -6272 -1 2 0
-250 -255 -6272 -1 -3 2 0
-252 -253 -6272 -3 -1 2 0
-252 -255 -6272 -3 2 0
-250 -253 -6273 -1 3 0
-250 -254 -6273 -1 -2 3 0
-251 -253 -6273 -2 -1 3 0
-251 -254 -6273 -2 3 0
-257 -260 -6274 -2 1 0
-257 -261 -6274 -2 -3 1 0
-258 -260 -6274 -3 -2 1 0
-258 -261 -6274 -3 1 0
-256 -259 -6275 -1 2 0
-256 -261 -6275 -1 -3 2 0
-258 -259 -6275 -3 -1 2 0
-258 -261 -6275 -3 2 0
-256 -259 -6276 -1 3 0
-256 -260 -6276 -1 -2 3 0
-257 -259 -6276 -2 -1 3 0
-257 -260 -6276 -2 3 0
-263 -266 -6277 -2 1 0
-263 -267 -6277 -2 -3 1 0
-264 -266 -6277 -3 -2 1 0
-264 -267 -6277 -3 1 0
-262 -265 -6278 -1 2 0
-262 -267 -6278 -1 -3 2 0
-264 -265 -6278 -3 -1 2 0
-264 -267 -6278 -3 2 0
-262 -265 -6279 -1 3 0
-262 -266 -6279 -1 -2 3 0
-263 -265 -6279 -2 -1 3 0
-263 -266 -6279 -2 3 0
-269 -272 -6280 -2 1 0
-269 -273 -6280 -2 -3 1 0
-270 -272 -6280 -3 -2 1 0
-270 -273 -6280 -3 1 0
-268 -271 -6281 -1 2 0
-268 -273 -6281 -1 -3 2 0
-270 -271 -6281 -3 -1 2 0
-270 -273 -6281 -3 2 0
-268 -271 -6282 -1 3 0
-268 -272 -6282 -1 -2 3 0
-269 -271 -6282 -2 -1 3 0
-269 -272 -6282 -2 3 0
-275 -278 -6283 -2 1 0
-275 -279 -6283 -2 -3 1 0
-276 -278 -6283 -3 -2 1 0
-276 -279 -6283 -3 1 0
-274 -277 -6284 -1 2 0
-274 -279 -6284 -1 -3 2 0
-276 -277 -6284 -3 -1 2 0
-276 -279 -6284 -3 2 0
-274 -277 -6285 -1 3 0
-274 -278 -6285 -1 -2 3 0
-275 -277 -6285 -2 -1 3 0
-275 -278 -6285 -2 3 0
-281 -284 -6286 -2 1 0
-281 -285 -6286 -2 -3 1 0
-282 -284 -6286 -3 -2 1 0
-282 -285 -6286 -3 1 0
-280 -283 -6287 -1 2 0
-280 -285 -6287 -1 -3 2 0
-282 -283 -6287 -3 -1 2 0
-282 -285 -6287 -3 2 0
-280 -283 -6288 -1 3 0
-280 -284 -6288 -1 -2 3 0
-281 -283 -6288 -2 -1 3 0
-281 -284 -6288 -2 3 0
-287 -290 -6289 -2 1 0
-287 -291 -6289 -2 -3 1 0
-288 -290 -6289 -3 -2 1 0
-288 -291 -6289 -3 1 0
-286 -289 -6290 -1 2 0
-286 -291 -6290 -1 -3 2 0
-288 -289 -6290 -3 -1 2 0
-288 -291 -6290 -3 2 0
-286 -289 -6291 -1 3 0
-286 -290 -6291 -1 -2 3 0
-287 -289 -6291 -2 -1 3 0
-287 -290 -6291 -2 3 0
-293 -296 -6292 -2 1 0
-293 -297 -6292 -2 -3 1 0
-294 -296 -6292 -3 -2 1 0
-294 -297 -6292 -3 1 0
-292 -295 -6293 -1 2 0
-292 -297 -6293 -1 -3 2 0
-294 -295 -6293 -3 -1 2 0
-294 -297 -6293 -3 2 0
-292 -295 -6294 -1 3 0
-292 -296 -6294 -1 -2 3 0
-293 -295 -6294 -2 -1 3 0
-293 -296 -6294 -2 3 0
-299 -302 -6295 -2 1 0
-299 -303 -6295 -2 -3 1 0
-300 -302 -6295 -3 -2 1 0
-300 -303 -6295 -3 1 0
-298 -301 -6296 -1 2 0
-298 -303 -6296 -1 -3 2 0
-300 -301 -6296 -3 -1 2 0
-300 -303 -6296 -3 2 0
-298 -301 -6297 -1 3 0
-298 -302 -6297 -1 -2 3 0
-299 -301 -6297 -2 -1 3 0
-299 -302 -6297 -2 3 0
-305 -308 -6298 -2 1 0
-305 -309 -6298 -2 -3 1 0
-306 -308 -6298 -3 -2 1 0
-306 -309 -6298 -3 1 0
-304 -307 -6299 -1 2 0
-304 -309 -6299 -1 -3 2 0
-306 -307 -6299 -3 -1 2 0
-306 -309 -6299 -3 2 0
-304 -307 -6300 -1 3 0
-304 -308 -6300 -1 -2 3 0
-305 -307 -6300 -2 -1 3 0
-305 -308 -6300 -2 3 0
-311 -314 -6301 -2 1 0
-311 -315 -6301 -2 -3 1 0
-312 -314 -6301 -3 -2 1 0
-312 -315 -6301 -3 1 0
-310 -313 -6302 -1 2 0
-310 -315 -6302 -1 -3 2 0
-312 -313 -6302 -3 -1 2 0
-312 -315 -6302 -3 2 0
-310 -313 -6303 -1 3 0
-310 -314 -6303 -1 -2 3 0
-311 -313 -6303 -2 -1 3 0
-311 -314 -6303 -2 3 0
-317 -320 -6304 -2 1 0
-317 -321 -6304 -2 -3 1 0
-318 -320 -6304 -3 -2 1 0
-318 -321 -6304 -3 1 0
-316 -319 -6305 -1 2 0
-316 -321 -6305 -1 -3 2 0
-318 -319 -6305 -3 -1 2 0
-318 -321 -6305 -3 2 0
-316 -319 -6306 -1 3 0
-316 -320 -6306 -1 -2 3 0
-317 -319 -6306 -2 -1 3 0
-317 -320 -6306 -2 3 0
-323 -326 -6307 -2 1 0
-323 -327 -6307 -2 -3 1 0
-324 -326 -6307 -3 -2 1 0
-324 -327 -6307 -3 1 0
-322 -325 -6308 -1 2 0
-322 -327 -6308 -1 -3 2 0
-324 -325 -6308 -3 -1 2 0
-324 -327 -6308 -3 2 0
-322 -325 -6309 -1 3 0
-322 -326 -6309 -1 -2 3 0
-323 -325 -6309 -2 -1 3 0
-323 -326 -6309 -2 3 0
-329 -332 -6310 -2 1 0
-329 -333 -6310 -2 -3 1 0
-330 -332 -6310 -3 -2 1 0
-330 -333 -6310 -3 1 0
-328 -331 -6311 -1 2 0
-328 -333 -6311 -1 -3 2 0
-330 -331 -6311 -3 -1 2 0
-330 -333 -6311 -3 2 0
-328 -331 -6312 -1 3 0
-328 -332 -6312 -1 -2 3 0
-329 -331 -6312 -2 -1 3 0
-329 -332 -6312 -2 3 0
-335 -338 -6313 -2 1 0
-335 -339 -6313 -2 -3 1 0
-336 -338 -6313 -3 -2 1 0
-336 -339 -6313 -3 1 0
-334 -337 -6314 -1 2 0
-334 -339 -6314 -1 -3 2 0
-336 -337 -6314 -3 -1 2 0
-336 -339 -6314 -3 2 0
-334 -337 -6315 -1 3 0
-334 -338 -6315 -1 -2 3 0
-335 -337 -6315 -2 -1 3 0
-335 -338 -6315 -2 3 0
-341 -344 -6316 -2 1 0
-341 -345 -6316 -2 -3 1 0
-342 -344 -6316 -3 -2 1 0
-342 -345 -6316 -3 1 0
-340 -343 -6317 -1 2 0
-340 -345 -6317 -1 -3 2 0
-342 -343 -6317 -3 -1 2 0
-342 -345 -6317 -3 2 0
-340 -343 -6318 -1 3 0
-340 -344 -6318 -1 -2 3 0
-341 -343 -6318 -2 -1 3 0
-341 -344 -6318 -2 3 0
-347 -350 -6319 -2 1 0
-347 -351 -6319 -2 -3 1 0
-348 -350 -6319 -3 -2 1 0
-348 -351 -6319 -3 1 0
-346 -349 -6320 -1 2 0
-346 -351 -6320 -1 -3 2 0
-348 -349 -6320 -3 -1 2 0
-348 -351 -6320 -3 2 0
-346 -349 -6321 -1 3 0
-346 -350 -6321 -1 -2 3 0
-347 -349 -6321 -2 -1 3 0
-347 -350 -6321 -2 3 0
-353 -356 -6322 -2 1 0
-353 -357 -6322 -2 -3 1 0
-354 -356 -6322 -3 -2 1 0
-354 -357 -6322 -3 1 0
-352 -355 -6323 -1 2 0
-352 -357 -6323 -1 -3 2 0
-354 -355 -6323 -3 -1 2 0
-354 -357 -6323 -3 2 0
-352 -355 -6324 -1 3 0
-352 -356 -6324 -1 -2 3 0
-353 -355 -6324 -2 -1 3 0
-353 -356 -6324 -2 3 0
-359 -362 -6325 -2 1 0
-359 -363 -6325 -2 -3 1 0
-360 -362 -6325 -3 -2 1 0
-360 -363 -6325 -3 1 0
-358 -361 -6326 -1 2 0
-358 -363 -6326 -1 -3 2 0
-360 -361 -6326 -3 -1 2 0
-360 -363 -6326 -3 2 0
-358 -361 -6327 -1 3 0
-358 -362 -6327 -1 -2 3 0
-359 -361 -6327 -2 -1 3 0
-359 -362 -6327 -2 3 0
-365 -368 -6328 -2 1 0
-365 -369 -6328 -2 -3 1 0
-366 -368 -6328 -3 -2 1 0
-366 -369 -6328 -3 1 0
-364 -367 -6329 -1 2 0
-364 -369 -6329 -1 -3 2 0
-366 -367 -6329 -3 -1 2 0
-366 -369 -6329 -3 2 0
-364 -367 -6330 -1 3 0
-364 -368 -6330 -1 -2 3 0
-365 -367 -6330 -2 -1 3 0
-365 -368 -6330 -2 3 0
-371 -374 -6331 -2 1 0
-371 -375 -6331 -2 -3 1 0
-372 -374 -6331 -3 -2 1 0
-372 -375 -6331 -3 1 0
-370 -373 -6332 -1 2 0
-370 -375 -6332 -1 -3 2 0
-372 -373 -6332 -3 -1 2 0
-372 -375 -6332 -3 2 0
-370 -373 -6333 -1 3 0
-370 -374 -6333 -1 -2 3 0
-371 -373 -6333 -2 -1 3 0
-371 -374 -6333 -2 3 0
-377 -380 -6334 -2 1 0
-377 -381 -6334 -2 -3 1 0
-378 -380 -6334 -3 -2 1 0
-378 -381 -6334 -3 1 0
-376 -379 -6335 -1 2 0
-376 -381 -6335 -1 -3 2 0
-378 -379 -6335 -3 -1 2 0
-378 -381 -6335 -3 2 0
-376 -379 -6336 -1 3 0
-376 -380 -6336 -1 -2 3 0
-377 -379 -6336 -2 -1 3 0
-377 -380 -6336 -2 3 0
-383 -386 -6337 -2 1 0
-383 -387 -6337 -2 -3 1 0
-384 -386 -6337 -3 -2 1 0
-384 -387 -6337 -3 1 0
-382 -385 -6338 -1 2 0
-382 -387 -6338 -1 -3 2 0
-384 -385 -6338 -3 -1 2 0
-384 -387 -6338 -3 2 0
-382 -385 -6339 -1 3 0
-382 -386 -6339 -1 -2 3 0
-383 -385 -6339 -2 -1 3 0
-383 -386 -6339 -2 3 0
-389 -392 -6340 -2 1 0
-389 -393 -6340 -2 -3 1 0
-390 -392 -6340 -3 -2 1 0
-390 -393 -6340 -3 1 0
-388 -391 -6341 -1 2 0
-388 -393 -6341 -1 -3 2 0
-390 -391 -6341 -3 -1 2 0
-390 -393 -6341 -3 2 0
-388 -391 -6342 -1 3 0
-388 -392 -6342 -1 -2 3 0
-389 -391 -6342 -2 -1 3 0
-389 -392 -6342 -2 3 0
-395 -398 -6343 -2 1 0
-395 -399 -6343 -2 -3 1 0
-396 -398 -6343 -3 -2 1 0
-396 -399 -6343 -3 1 0
-394 -397 -6344 -1 2 0
-394 -399 -6344 -1 -3 2 0
-396 -397 -6344 -3 -1 2 0
-396 -399 -6344 -3 2 0
-394 -397 -6345 -1 3 0
-394 -398 -6345 -1 -2 3 0
-395 -397 -6345 -2 -1 3 0
-395 -398 -6345 -2 3 0
-401 -404 -6346 -2 1 0
-401 -405 -6346 -2 -3 1 0
-402 -404 -6346 -3 -2 1 0
-402 -405 -6346 -3 1 0
-400 -403 -6347 -1 2 0
-400 -405 -6347 -1 -3 2 0
-402 -403 -6347 -3 -1 2 0
-402 -405 -6347 -3 2 0
-400 -403 -6348 -1 3 0
-400 -404 -6348 -1 -2 3 0
-401 -403 -6348 -2 -1 3 0
-401 -404 -6348 -2 3 0
-407 -410 -6349 -2 1 0
-407 -411 -6349 -2 -3 1 0
-408 -410 -6349 -3 -2 1 0
-408 -411 -6349 -3 1 0
-406 -409 -6350 -1 2 0
-406 -411 -6350 -1 -3 2 0
-408 -409 -6350 -3 -1 2 0
-408 -411 -6350 -3 2 0
-406 -409 -6351 -1 3 0
-406 -410 -6351 -1 -2 3 0
-407 -409 -6351 -2 -1 3 0
-407 -410 -6351 -2 3 0
-413 -416 -6352 -2 1 0
-413 -417 -6352 -2 -3 1 0
-414 -416 -6352 -3 -2 1 0
-414 -417 -6352 -3 1 0
-412 -415 -6353 -1 2 0
-412 -417 -6353 -1 -3 2 0
-414 -415 -6353 -3 -1 2 0
-414 -417 -6353 -3 2 0
-412 -415 -6354 -1 3 0
-412 -416 -6354 -1 -2 3 0
-413 -415 -6354 -2 -1 3 0
-413 -416 -6354 -2 3 0
-419 -422 -6355 -2 1 0
-419 -423 -6355 -2 -3 1 0
-420 -422 -6355 -3 -2 1 0
-420 -423 -6355 -3 1 0
-418 -421 -6356 -1 2 0
-418 -423 -6356 -1 -3 2 0
-420 -421 -6356 -3 -1 2 0
-420 -423 -6356 -3 2 0
-418 -421 -6357 -1 3 0
-418 -422 -6357 -1 -2 3 0
-419 -421 -6357 -2 -1 3 0
-419 -422 -6357 -2 3 0
-425 -428 -6358 -2 1 0
-425 -429 -6358 -2 -3 1 0
-426 -428 -6358 -3 -2 1 0
-426 -429 -6358 -3 1 0
-424 -427 -6359 -1 2 0
-424 -429 -6359 -1 -3 2 0
-426 -427 -6359 -3 -1 2 0
-426 -429 -6359 -3 2 0
-424 -427 -6360 -1 3 0
-424 -428 -6360 -1 -2 3 0
-425 -427 -6360 -2 -1 3 0
-425 -428 -6360 -2 3 0
-431 -434 -6361 -2 1 0
-431 -435 -6361 -2 -3 1 0
-432 -434 -6361 -3 -2 1 0
-432 -435 -6361 -3 1 0
-430 -433 -6362 -1 2 0
-430 -435 -6362 -1 -3 2 0
-432 -433 -6362 -3 -1 2 0
-432 -435 -6362 -3 2 0
-430 -433 -6363 -1 3 0
-430 -434 -6363 -1 -2 3 0
-431 -433 -6363 -2 -1 3 0
-431 -434 -6363 -2 3 0
-437 -440 -6364 -2 1 0
-437 -441 -6364 -2 -3 1 0
-438 -440 -6364 -3 -2 1 0
-438 -441 -6364 -3 1 0
-436 -439 -6365 -1 2 0
-436 -441 -6365 -1 -3 2 0
-438 -439 -6365 -3 -1 2 0
-438 -441 -6365 -3 2 0
-436 -439 -6366 -1 3 0
-436 -440 -6366 -1 -2 3 0
-437 -439 -6366 -2 -1 3 0
-437 -440 -6366 -2 3 0
-443 -446 -6367 -2 1 0
-443 -447 -6367 -2 -3 1 0
-444 -446 -6367 -3 -2 1 0
-444 -447 -6367 -3 1 0
-442 -445 -6368 -1 2 0
-442 -447 -6368 -1 -3 2 0
-444 -445 -6368 -3 -1 2 0
-444 -447 -6368 -3 2 0
-442 -445 -6369 -1 3 0
-442 -446 -6369 -1 -2 3 0
-443 -445 -6369 -2 -1 3 0
-443 -446 -6369 -2 3 0
-449 -452 -6370 -2 1 0
-449 -453 -6370 -2 -3 1 0
-450 -452 -6370 -3 -2 1 0
-450 -453 -6370 -3 1 0
-448 -451 -6371 -1 2 0
-448 -453 -6371 -1 -3 2 0
-450 -451 -6371 -3 -1 2 0
-450 -453 -6371 -3 2 0
-448 -451 -6372 -1 3 0
-448 -452 -6372 -1 -2 3 0
-449 -451 -6372 -2 -1 3 0
-449 -452 -6372 -2 3 0
-455 -458 -6373 -2 1 0
-455 -459 -6373 -2 -3 1 0
-456 -458 -6373 -3 -2 1 0
-456 -459 -6373 -3 1 0
-454 -457 -6374 -1 2 0
-454 -459 -6374 -1 -3 2 0
-456 -457 -6374 -3 -1 2 0
-456 -459 -6374 -3 2 0
-454 -457 -6375 -1 3 0
-454 -458 -6375 -1 -2 3 0
-455 -457 -6375 -2 -1 3 0
-455 -458 -6375 -2 3 0
-461 -464 -6376 -2 1 0
-461 -465 -6376 -2 -3 1 0
-462 -464 -6376 -3 -2 1 0
-462 -465 -6376 -3 1 0
-460 -463 -6377 -1 2 0
-460 -465 -6377 -1 -3 2 0
-462 -463 -6377 -3 -1 2 0
-462 -465 -6377 -3 2 0
-460 -463 -6378 -1 3 0
-460 -464 -6378 -1 -2 3 0
-461 -463 -6378 -2 -1 3 0
-461 -464 -6378 -2 3 0
-467 -470 -6379 -2 1 0
-467 -471 -6379 -2 -3 1 0
-468 -470 -6379 -3 -2 1 0
-468 -471 -6379 -3 1 0
-466 -469 -6380 -1 2 0
-466 -471 -6380 -1 -3 2 0
-468 -469 -6380 -3 -1 2 0
-468 -471 -6380 -3 2 0
-466 -469 -6381 -1 3 0
-466 -470 -6381 -1 -2 3 0
-467 -469 -6381 -2 -1 3 0
-467 -470 -6381 -2 3 0
-473 -476 -6382 -2 1 0
-473 -477 -6382 -2 -3 1 0
-474 -476 -6382 -3 -2 1 0
-474 -477 -6382 -3 1 0
-472 -475 -6383 -1 2 0
-472 -477 -6383 -1 -3 2 0
-474 -475 -6383 -3 -1 2 0
-474 -477 -6383 -3 2 0
-472 -475 -6384 -1 3 0
-472 -476 -6384 -1 -2 3 0
-473 -475 -6384 -2 -1 3 0
-473 -476 -6384 -2 3 0
-479 -482 -6385 -2 1 0
-479 -483 -6385 -2 -3 1 0
-480 -482 -6385 -3 -2 1 0
-480 -483 -6385 -3 1 0
-478 -481 -6386 -1 2 0
-478 -483 -6386 -1 -3 2 0
-480 -481 -6386 -3 -1 2 0
-480 -483 -6386 -3 2 0
-478 -481 -6387 -1 3 0
-478 -482 -6387 -1 -2 3 0
-479 -481 -6387 -2 -1 3 0
-479 -482 -6387 -2 3 0
-485 -488 -6388 -2 1 0
-485 -489 -6388 -2 -3 1 0
-486 -488 -6388 -3 -2 1 0
-486 -489 -6388 -3 1 0
-484 -487 -6389 -1 2 0
-484 -489 -6389 -1 -3 2 0
-486 -487 -6389 -3 -1 2 0
-486 -489 -6389 -3 2 0
-484 -487 -6390 -1 3 0
-484 -488 -6390 -1 -2 3 0
-485 -487 -6390 -2 -1 3 0
-485 -488 -6390 -2 3 0
-491 -494 -6391 -2 1 0
-491 -495 -6391 -2 -3 1 0
-492 -494 -6391 -3 -2 1 0
-492 -495 -6391 -3 1 0
-490 -493 -6392 -1 2 0
-490 -495 -6392 -1 -3 2 0
-492 -493 -6392 -3 -1 2 0
-492 -495 -6392 -3 2 0
-490 -493 -6393 -1 3 0
-490 -494 -6393 -1 -2 3 0
-491 -493 -6393 -2 -1 3 0
-491 -494 -6393 -2 3 0
-497 -500 -6394 -2 1 0
-497 -501 -6394 -2 -3 1 0
-498 -500 -6394 -3 -2 1 0
-498 -501 -6394 -3 1 0
-496 -499 -6395 -1 2 0
-496 -501 -6395 -1 -3 2 0
-498 -499 -6395 -3 -1 2 0
-498 -501 -6395 -3 2 0
-496 -499 -6396 -1 3 0
-496 -500 -6396 -1 -2 3 0
-497 -499 -6396 -2 -1 3 0
-497 -500 -6396 -2 3 0
-503 -506 -6397 -2 1 0
-503 -507 -6397 -2 -3 1 0
-504 -506 -6397 -3 -2 1 0
-504 -507 -6397 -3 1 0
-502 -505 -6398 -1 2 0
-502 -507 -6398 -1 -3 2 0
-504 -505 -6398 -3 -1 2 0
-504 -507 -6398 -3 2 0
-502 -505 -6399 -1 3 0
-502 -506 -6399 -1 -2 3 0
-503 -505 -6399 -2 -1 3 0
-503 -506 -6399 -2 3 0
-509 -512 -6400 -2 1 0
-509 -513 -6400 -2 -3 1 0
-510 -512 -6400 -3 -2 1 0
-510 -513 -6400 -3 1 0
-508 -511 -6401 -1 2 0
-508 -513 -6401 -1 -3 2 0
-510 -511 -6401 -3 -1 2 0
-510 -513 -6401 -3 2 0
-508 -511 -6402 -1 3 0
-508 -512 -6402 -1 -2 3 0
-509 -511 -6402 -2 -1 3 0
-509 -512 -6402 -2 3 0
-515 -518 -6403 -2 1 0
-515 -519 -6403 -2 -3 1 0
-516 -518 -6403 -3 -2 1 0
-516 -519 -6403 -3 1 0
-514 -517 -6404 -1 2 0
-514 -519 -6404 -1 -3 2 0
-516 -517 -6404 -3 -1 2 0
-516 -519 -6404 -3 2 0
-514 -517 -6405 -1 3 0
-514 -518 -6405 -1 -2 3 0
-515 -517 -6405 -2 -1 3 0
-515 -518 -6405 -2 3 0
-521 -524 -6406 -2 1 0
-521 -525 -6406 -2 -3 1 0
-522 -524 -6406 -3 -2 1 0
-522 -525 -6406 -3 1 0
-520 -523 -6407 -1 2 0
-520 -525 -6407 -1 -3 2 0
-522 -523 -6407 -3 -1 2 0
-522 -525 -6407 -3 2 0
-520 -523 -6408 -1 3 0
-520 -524 -6408 -1 -2 3 0
-521 -523 -6408 -2 -1 3 0
-521 -524 -6408 -2 3 0
-527 -530 -6409 -2 1 0
-527 -531 -6409 -2 -3 1 0
-528 -530 -6409 -3 -2 1 0
-528 -531 -6409 -3 1 0
-526 -529 -6410 -1 2 0
-526 -531 -6410 -1 -3 2 0
-528 -529 -6410 -3 -1 2 0
-528 -531 -6410 -3 2 0
-526 -529 -6411 -1 3 0
-526 -530 -6411 -1 -2 3 0
-527 -529 -6411 -2 -1 3 0
-527 -530 -6411 -2 3 0
-533 -536 -6412 -2 1 0
-533 -537 -6412 -2 -3 1 0
-534 -536 -6412 -3 -2 1 0
-534 -537 -6412 -3 1 0
-532 -535 -6413 -1 2 0
-532 -537 -6413 -1 -3 2 0
-534 -535 -6413 -3 -1 2 0
-534 -537 -6413 -3 2 0
-532 -535 -6414 -1 3 0
-532 -536 -6414 -1 -2 3 0
-533 -535 -6414 -2 -1 3 0
-533 -536 -6414 -2 3 0
-539 -542 -6415 -2 1 0
-539 -543 -6415 -2 -3 1 0
-540 -542 -6415 -3 -2 1 0
-540 -543 -6415 -3 1 0
-538 -541 -6416 -1 2 0
-538 -543 -6416 -1 -3 2 0
-540 -541 -6416 -3 -1 2 0
-540 -543 -6416 -3 2 0
-538 -541 -6417 -1 3 0
-538 -542 -6417 -1 -2 3 0
-539 -541 -6417 -2 -1 3 0
-539 -542 -6417 -2 3 0
-545 -548 -6418 -2 1 0
-545 -549 -6418 -2 -3 1 0
-546 -548 -6418 -3 -2 1 0
-546 -549 -6418 -3 1 0
-544 -547 -6419 -1 2 0
-544 -549 -6419 -1 -3 2 0
-546 -547 -6419 -3 -1 2 0
-546 -549 -6419 -3 2 0
-544 -547 -6420 -1 3 0
-544 -548 -6420 -1 -2 3 0
-545 -547 -6420 -2 -1 3 0
-545 -548 -6420 -2 3 0
-551 -554 -6421 -2 1 0
-551 -555 -6421 -2 -3 1 0
-552 -554 -6421 -3 -2 1 0
-552 -555 -6421 -3 1 0
-550 -553 -6422 -1 2 0
-550 -555 -6422 -1 -3 2 0
-552 -553 -6422 -3 -1 2 0
-552 -555 -6422 -3 2 0
-550 -553 -6423 -1 3 0
-550 -554 -6423 -1 -2 3 0
-551 -553 -6423 -2 -1 3 0
-551 -554 -6423 -2 3 0
-557 -560 -6424 -2 1 0
-557 -561 -6424 -2 -3 1 0
-558 -560 -6424 -3 -2 1 0
-558 -561 -6424 -3 1 0
-556 -559 -6425 -1 2 0
-556 -561 -6425 -1 -3 2 0
-558 -559 -6425 -3 -1 2 0
-558 -561 -6425 -3 2 0
-556 -559 -6426 -1 3 0
-556 -560 -6426 -1 -2 3 0
-557 -559 -6426 -2 -1 3 0
-557 -560 -6426 -2 3 0
-563 -566 -6427 -2 1 0
-563 -567 -6427 -2 -3 1 0
-564 -566 -6427 -3 -2 1 0
-564 -567 -6427 -3 1 0
-562 -565 -6428 -1 2 0
-562 -567 -6428 -1 -3 2 0
-564 -565 -6428 -3 -1 2 0
-564 -567 -6428 -3 2 0
-562 -565 -6429 -1 3 0
-562 -566 -6429 -1 -2 3 0
-563 -565 -6429 -2 -1 3 0
-563 -566 -6429 -2 3 0
-569 -572 -6430 -2 1 0
-569 -573 -6430 -2 -3 1 0
-570 -572 -6430 -3 -2 1 0
-570 -573 -6430 -3 1 0
-568 -571 -6431 -1 2 0
-568 -573 -6431 -1 -3 2 0
-570 -571 -6431 -3 -1 2 0
-570 -573 -6431 -3 2 0
-568 -571 -6432 -1 3 0
-568 -572 -6432 -1 -2 3 0
-569 -571 -6432 -2 -1 3 0
-569 -572 -6432 -2 3 0
-575 -578 -6433 -2 1 0
-575 -579 -6433 -2 -3 1 0
-576 -578 -6433 -3 -2 1 0
-576 -579 -6433 -3 1 0
-574 -577 -6434 -1 2 0
-574 -579 -6434 -1 -3 2 0
-576 -577 -6434 -3 -1 2 0
-576 -579 -6434 -3 2 0
-574 -577 -6435 -1 3 0
-574 -578 -6435 -1 -2 3 0
-575 -577 -6435 -2 -1 3 0
-575 -578 -6435 -2 3 0
-581 -584 -6436 -2 1 0
-581 -585 -6436 -2 -3 1 0
-582 -584 -6436 -3 -2 1 0
-582 -585 -6436 -3 1 0
-580 -583 -6437 -1 2 0
-580 -585 -6437 -1 -3 2 0
-582 -583 -6437 -3 -1 2 0
-582 -585 -6437 -3 2 0
-580 -583 -6438 -1 3 0
-580 -584 -6438 -1 -2 3 0
-581 -583 -6438 -2 -1 3 0
-581 -584 -6438 -2 3 0
-587 -590 -6439 -2 1 0
-587 -591 -6439 -2 -3 1 0
-588 -590 -6439 -3 -2 1 0
-588 -591 -6439 -3 1 0
-586 -589 -6440 -1 2 0
-586 -591 -6440 -1 -3 2 0
-588 -589 -6440 -3 -1 2 0
-588 -591 -6440 -3 2 0
-586 -589 -6441 -1 3 0
-586 -590 -6441 -1 -2 3 0
-587 -589 -6441 -2 -1 3 0
-587 -590 -6441 -2 3 0
-593 -596 -6442 -2 1 0
-593 -597 -6442 -2 -3 1 0
-594 -596 -6442 -3 -2 1 0
-594 -597 -6442 -3 1 0
-592 -595 -6443 -1 2 0
-592 -597 -6443 -1 -3 2 0
-594 -595 -6443 -3 -1 2 0
-594 -597 -6443 -3 2 0
-592 -595 -6444 -1 3 0
-592 -596 -6444 -1 -2 3 0
-593 -595 -6444 -2 -1 3 0
-593 -596 -6444 -2 3 0
-599 -602 -6445 -2 1 0
-599 -603 -6445 -2 -3 1 0
-600 -602 -6445 -3 -2 1 0
-600 -603 -6445 -3 1 0
-598 -601 -6446 -1 2 0
-598 -603 -6446 -1 -3 2 0
-600 -601 -6446 -3 -1 2 0
-600 -603 -6446 -3 2 0
-598 -601 -6447 -1 3 0
-598 -602 -6447 -1 -2 3 0
-599 -601 -6447 -2 -1 3 0
-599 -602 -6447 -2 3 0
-605 -608 -6448 -2 1 0
-605 -609 -6448 -2 -3 1 0
-606 -608 -6448 -3 -2 1 0
-606 -609 -6448 -3 1 0
-604 -607 -6449 -1 2 0
-604 -609 -6449 -1 -3 2 0
-606 -607 -6449 -3 -1 2 0
-606 -609 -6449 -3 2 0
-604 -607 -6450 -1 3 0
-604 -608 -6450 -1 -2 3 0
-605 -607 -6450 -2 -1 3 0
-605 -608 -6450 -2 3 0
-611 -614 -6451 -2 1 0
-611 -615 -6451 -2 -3 1 0
-612 -614 -6451 -3 -2 1 0
-612 -615 -6451 -3 1 0
-610 -613 -6452 -1 2 0
-610 -615 -6452 -1 -3 2 0
-612 -613 -6452 -3 -1 2 0
-612 -615 -6452 -3 2 0
-610 -613 -6453 -1 3 0
-610 -614 -6453 -1 -2 3 0
-611 -613 -6453 -2 -1 3 0
-611 -614 -6453 -2 3 0
-617 -620 -6454 -2 1 0
-617 -621 -6454 -2 -3 1 0
-618 -620 -6454 -3 -2 1 0
-618 -621 -6454 -3 1 0
-616 -619 -6455 -1 2 0
-616 -621 -6455 -1 -3 2 0
-618 -619 -6455 -3 -1 2 0
-618 -621 -6455 -3 2 0
-616 -619 -6456 -1 3 0
-616 -620 -6456 -1 -2 3 0
-617 -619 -6456 -2 -1 3 0
-617 -620 -6456 -2 3 0
-623 -626 -6457 -2 1 0
-623 -627 -6457 -2 -3 1 0
-624 -626 -6457 -3 -2 1 0
-624 -627 -6457 -3 1 0
-622 -625 -6458 -1 2 0
-622 -627 -6458 -1 -3 2 0
-624 -625 -6458 -3 -1 2 0
-624 -627 -6458 -3 2 0
-622 -625 -6459 -1 3 0
-622 -626 -6459 -1 -2 3 0
-623 -625 -6459 -2 -1 3 0
-623 -626 -6459 -2 3 0
-629 -632 -6460 -2 1 0
-629 -633 -6460 -2 -3 1 0
-630 -632 -6460 -3 -2 1 0
-630 -633 -6460 -3 1 0
-628 -631 -6461 -1 2 0
-628 -633 -6461 -1 -3 2 0
-630 -631 -6461 -3 -1 2 0
-630 -633 -6461 -3 2 0
-628 -631 -6462 -1 3 0
-628 -632 -6462 -1 -2 3 0
-629 -631 -6462 -2 -1 3 0
-629 -632 -6462 -2 3 0
-635 -638 -6463 -2 1 0
-635 -639 -6463 -2 -3 1 0
-636 -638 -6463 -3 -2 1 0
-636 -639 -6463 -3 1 0
-634 -637 -6464 -1 2 0
-634 -639 -6464 -1 -3 2 0
-636 -637 -6464 -3 -1 2 0
-636 -639 -6464 -3 2 0
-634 -637 -6465 -1 3 0
-634 -638 -6465 -1 -2 3 0
-635 -637 -6465 -2 -1 3 0
-635 -638 -6465 -2 3 0
-641 -644 -6466 -2 1 0
-641 -645 -6466 -2 -3 1 0
-642 -644 -6466 -3 -2 1 0
-642 -645 -6466 -3 1 0
-640 -643 -6467 -1 2 0
-640 -645 -6467 -1 -3 2 0
-642 -643 -6467 -3 -1 2 0
-642 -645 -6467 -3 2 0
-640 -643 -6468 -1 3 0
-640 -644 -6468 -1 -2 3 0
-641 -643 -6468 -2 -1 3 0
-641 -644 -6468 -2 3 0
-647 -650 -6469 -2 1 0
-647 -651 -6469 -2 -3 1 0
-648 -650 -6469 -3 -2 1 0
-648 -651 -6469 -3 1 0
-646 -649 -6470 -1 2 0
-646 -651 -6470 -1 -3 2 0
-648 -649 -6470 -3 -1 2 0
-648 -651 -6470 -3 2 0
-646 -649 -6471 -1 3 0
-646 -650 -6471 -1 -2 3 0
-647 -649 -6471 -2 -1 3 0
-647 -650 -6471 -2 3 0
-653 -656 -6472 -2 1 0
-653 -657 -6472 -2 -3 1 0
-654 -656 -6472 -3 -2 1 0
-654 -657 -6472 -3 1 0
-652 -655 -6473 -1 2 0
-652 -657 -6473 -1 -3 2 0
-654 -655 -6473 -3 -1 2 0
-654 -657 -6473 -3 2 0
-652 -655 -6474 -1 3 0
-652 -656 -6474 -1 -2 3 0
-653 -655 -6474 -2 -1 3 0
-653 -656 -6474 -2 3 0
-659 -662 -6475 -2 1 0
-659 -663 -6475 -2 -3 1 0
-660 -662 -6475 -3 -2 1 0
-660 -663 -6475 -3 1 0
-658 -661 -6476 -1 2 0
-658 -663 -6476 -1 -3 2 0
-660 -661 -6476 -3 -1 2 0
-660 -663 -6476 -3 2 0
-658 -661 -6477 -1 3 0
-658 -662 -6477 -1 -2 3 0
-659 -661 -6477 -2 -1 3 0
-659 -662 -6477 -2 3 0
-665 -668 -6478 -2 1 0
-665 -669 -6478 -2 -3 1 0
-666 -668 -6478 -3 -2 1 0
-666 -669 -6478 -3 1 0
-664 -667 -6479 -1 2 0
-664 -669 -6479 -1 -3 2 0
-666 -667 -6479 -3 -1 2 0
-666 -669 -6479 -3 2 0
-664 -667 -6480 -1 3 0
-664 -668 -6480 -1 -2 3 0
-665 -667 -6480 -2 -1 3 0
-665 -668 -6480 -2 3 0
-671 -674 -6481 -2 1 0
-671 -675 -6481 -2 -3 1 0
-672 -674 -6481 -3 -2 1 0
-672 -675 -6481 -3 1 0
-670 -673 -6482 -1 2 0
-670 -675 -6482 -1 -3 2 0
-672 -673 -6482 -3 -1 2 0
-672 -675 -6482 -3 2 0
-670 -673 -6483 -1 3 0
-670 -674 -6483 -1 -2 3 0
-671 -673 -6483 -2 -1 3 0
-671 -674 -6483 -2 3 0
-677 -680 -6484 -2 1 0
-677 -681 -6484 -2 -3 1 0
-678 -680 -6484 -3 -2 1 0
-678 -681 -6484 -3 1 0
-676 -679 -6485 -1 2 0
-676 -681 -6485 -1 -3 2 0
-678 -679 -6485 -3 -1 2 0
-678 -681 -6485 -3 2 0
-676 -679 -6486 -1 3 0
-676 -680 -6486 -1 -2 3 0
-677 -679 -6486 -2 -1 3 0
-677 -680 -6486 -2 3 0
-683 -686 -6487 -2 1 0
-683 -687 -6487 -2 -3 1 0
-684 -686 -6487 -3 -2 1 0
-684 -687 -6487 -3 1 0
-682 -685 -6488 -1 2 0
-682 -687 -6488 -1 -3 2 0
-684 -685 -6488 -3 -1 2 0
-684 -687 -6488 -3 2 0
-682 -685 -6489 -1 3 0
-682 -686 -6489 -1 -2 3 0
-683 -685 -6489 -2 -1 3 0
-683 -686 -6489 -2 3 0
-689 -692 -6490 -2 1 0
-689 -693 -6490 -2 -3 1 0
-690 -692 -6490 -3 -2 1 0
-690 -693 -6490 -3 1 0
-688 -691 -6491 -1 2 0
-688 -693 -6491 -1 -3 2 0
-690 -691 -6491 -3 -1 2 0
-690 -693 -6491 -3 2 0
-688 -691 -6492 -1 3 0
-688 -692 -6492 -1 -2 3 0
-689 -691 -6492 -2 -1 3 0
-689 -692 -6492 -2 3 0
-695 -698 -6493 -2 1 0
-695 -699 -6493 -2 -3 1 0
-696 -698 -6493 -3 -2 1 0
-696 -699 -6493 -3 1 0
-694 -697 -6494 -1 2 0
-694 -699 -6494 -1 -3 2 0
-696 -697 -6494 -3 -1 2 0
-696 -699 -6494 -3 2 0
-694 -697 -6495 -1 3 0
-694 -698 -6495 -1 -2 3 0
-695 -697 -6495 -2 -1 3 0
-695 -698 -6495 -2 3 0
-701 -704 -6496 -2 1 0
-701 -705 -6496 -2 -3 1 0
-702 -704 -6496 -3 -2 1 0
-702 -705 -6496 -3 1 0
-700 -703 -6497 -1 2 0
-700 -705 -6497 -1 -3 2 0
-702 -703 -6497 -3 -1 2 0
-702 -705 -6497 -3 2 0
-700 -703 -6498 -1 3 0
-700 -704 -6498 -1 -2 3 0
-701 -703 -6498 -2 -1 3 0
-701 -704 -6498 -2 3 0
-707 -710 -6499 -2 1 0
-707 -711 -6499 -2 -3 1 0
-708 -710 -6499 -3 -2 1 0
-708 -711 -6499 -3 1 0
-706 -709 -6500 -1 2 0
-706 -711 -6500 -1 -3 2 0
-708 -709 -6500 -3 -1 2 0
-708 -711 -6500 -3 2 0
-706 -709 -6501 -1 3 0
-706 -710 -6501 -1 -2 3 0
-707 -709 -6501 -2 -1 3 0
-707 -710 -6501 -2 3 0
-713 -716 -6502 -2 1 0
-713 -717 -6502 -2 -3 1 0
-714 -716 -6502 -3 -2 1 0
-714 -717 -6502 -3 1 0
-712 -715 -6503 -1 2 0
-712 -717 -6503 -1 -3 2 0
-714 -715 -6503 -3 -1 2 0
-714 -717 -6503 -3 2 0
-712 -715 -6504 -1 3 0
-712 -716 -6504 -1 -2 3 0
-713 -715 -6504 -2 -1 3 0
-713 -716 -6504 -2 3 0
-719 -722 -6505 -2 1 0
-719 -723 -6505 -2 -3 1 0
-720 -722 -6505 -3 -2 1 0
-720 -723 -6505 -3 1 0
-718 -721 -6506 -1 2 0
-718 -723 -6506 -1 -3 2 0
-720 -721 -6506 -3 -1 2 0
-720 -723 -6506 -3 2 0
-718 -721 -6507 -1 3 0
-718 -722 -6507 -1 -2 3 0
-719 -721 -6507 -2 -1 3 0
-719 -722 -6507 -2 3 0
-725 -728 -6508 -2 1 0
-725 -729 -6508 -2 -3 1 0
-726 -728 -6508 -3 -2 1 0
-726 -729 -6508 -3 1 0
-724 -727 -6509 -1 2 0
-724 -729 -6509 -1 -3 2 0
-726 -727 -6509 -3 -1 2 0
-726 -729 -6509 -3 2 0
-724 -727 -6510 -1 3 0
-724 -728 -6510 -1 -2 3 0
-725 -727 -6510 -2 -1 3 0
-725 -728 -6510 -2 3 0
-731 -734 -6511 -2 1 0
-731 -735 -6511 -2 -3 1 0
-732 -734 -6511 -3 -2 1 0
-732 -735 -6511 -3 1 0
-730 -733 -6512 -1 2 0
-730 -735 -6512 -1 -3 2 0
-732 -733 -6512 -3 -1 2 0
-732 -735 -6512 -3 2 0
-730 -733 -6513 -1 3 0
-730 -734 -6513 -1 -2 3 0
-731 -733 -6513 -2 -1 3 0
-731 -734 -6513 -2 3 0
-737 -740 -6514 -2 1 0
-737 -741 -6514 -2 -3 1 0
-738 -740 -6514 -3 -2 1 0
-738 -741 -6514 -3 1 0
-736 -739 -6515 -1 2 0
-736 -741 -6515 -1 -3 2 0
-738 -739 -6515 -3 -1 2 0
-738 -741 -6515 -3 2 0
-736 -739 -6516 -1 3 0
-736 -740 -6516 -1 -2 3 0
-737 -739 -6516 -2 -1 3 0
-737 -740 -6516 -2 3 0
-743 -746 -6517 -2 1 0
-743 -747 -6517 -2 -3 1 0
-744 -746 -6517 -3 -2 1 0
-744 -747 -6517 -3 1 0
-742 -745 -6518 -1 2 0
-742 -747 -6518 -1 -3 2 0
-744 -745 -6518 -3 -1 2 0
-744 -747 -6518 -3 2 0
-742 -745 -6519 -1 3 0
-742 -746 -6519 -1 -2 3 0
-743 -745 -6519 -2 -1 3 0
-743 -746 -6519 -2 3 0
-749 -752 -6520 -2 1 0
-749 -753 -6520 -2 -3 1 0
-750 -752 -6520 -3 -2 1 0
-750 -753 -6520 -3 1 0
-748 -751 -6521 -1 2 0
-748 -753 -6521 -1 -3 2 0
-750 -751 -6521 -3 -1 2 0
-750 -753 -6521 -3 2 0
-748 -751 -6522 -1 3 0
-748 -752 -6522 -1 -2 3 0
-749 -751 -6522 -2 -1 3 0
-749 -752 -6522 -2 3 0
-755 -758 -6523 -2 1 0
-755 -759 -6523 -2 -3 1 0
-756 -758 -6523 -3 -2 1 0
-756 -759 -6523 -3 1 0
-754 -757 -6524 -1 2 0
-754 -759 -6524 -1 -3 2 0
-756 -757 -6524 -3 -1 2 0
-756 -759 -6524 -3 2 0
-754 -757 -6525 -1 3 0
-754 -758 -6525 -1 -2 3 0
-755 -757 -6525 -2 -1 3 0
-755 -758 -6525 -2 3 0
-761 -764 -6526 -2 1 0
-761 -765 -6526 -2 -3 1 0
-762 -764 -6526 -3 -2 1 0
-762 -765 -6526 -3 1 0
-760 -763 -6527 -1 2 0
-760 -765 -6527 -1 -3 2 0
-762 -763 -6527 -3 -1 2 0
-762 -765 -6527 -3 2 0
-760 -763 -6528 -1 3 0
-760 -764 -6528 -1 -2 3 0
-761 -763 -6528 -2 -1 3 0
-761 -764 -6528 -2 3 0
-767 -770 -6529 -2 1 0
-767 -771 -6529 -2 -3 1 0
-768 -770 -6529 -3 -2 1 0
-768 -771 -6529 -3 1 0
-766 -769 -6530 -1 2 0
-766 -771 -6530 -1 -3 2 0
-768 -769 -6530 -3 -1 2 0
-768 -771 -6530 -3 2 0
-766 -769 -6531 -1 3 0
-766 -770 -6531 -1 -2 3 0
-767 -769 -6531 -2 -1 3 0
-767 -770 -6531 -2 3 0
-773 -776 -6532 -2 1 0
-773 -777 -6532 -2 -3 1 0
-774 -776 -6532 -3 -2 1 0
-774 -777 -6532 -3 1 0
-772 -775 -6533 -1 2 0
-772 -777 -6533 -1 -3 2 0
-774 -775 -6533 -3 -1 2 0
-774 -777 -6533 -3 2 0
-772 -775 -6534 -1 3 0
-772 -776 -6534 -1 -2 3 0
-773 -775 -6534 -2 -1 3 0
-773 -776 -6534 -2 3 0
-779 -782 -6535 -2 1 0
-779 -783 -6535 -2 -3 1 0
-780 -782 -6535 -3 -2 1 0
-780 -783 -6535 -3 1 0
-778 -781 -6536 -1 2 0
-778 -783 -6536 -1 -3 2 0
-780 -781 -6536 -3 -1 2 0
-780 -783 -6536 -3 2 0
-778 -781 -6537 -1 3 0
-778 -782 -6537 -1 -2 3 0
-779 -781 -6537 -2 -1 3 0
-779 -782 -6537 -2 3 0
-785 -788 -6538 -2 1 0
-785 -789 -6538 -2 -3 1 0
-786 -788 -6538 -3 -2 1 0
-786 -789 -6538 -3 1 0
-784 -787 -6539 -1 2 0
-784 -789 -6539 -1 -3 2 0
-786 -787 -6539 -3 -1 2 0
-786 -789 -6539 -3 2 0
-784 -787 -6540 -1 3 0
-784 -788 -6540 -1 -2 3 0
-785 -787 -6540 -2 -1 3 0
-785 -788 -6540 -2 3 0
-791 -794 -6541 -2 1 0
-791 -795 -6541 -2 -3 1 0
-792 -794 -6541 -3 -2 1 0
-792 -795 -6541 -3 1 0
-790 -793 -6542 -1 2 0
-790 -795 -6542 -1 -3 2 0
-792 -793 -6542 -3 -1 2 0
-792 -795 -6542 -3 2 0
-790 -793 -6543 -1 3 0
-790 -794 -6543 -1 -2 3 0
-791 -793 -6543 -2 -1 3 0
-791 -794 -6543 -2 3 0
-797 -800 -6544 -2 1 0
-797 -801 -6544 -2 -3 1 0
-798 -800 -6544 -3 -2 1 0
-798 -801 -6544 -3 1 0
-796 -799 -6545 -1 2 0
-796 -801 -6545 -1 -3 2 0
-798 -799 -6545 -3 -1 2 0
-798 -801 -6545 -3 2 0
-796 -799 -6546 -1 3 0
-796 -800 -6546 -1 -2 3 0
-797 -799 -6546 -2 -1 3 0
-797 -800 -6546 -2 3 0
-803 -806 -6547 -2 1 0
-803 -807 -6547 -2 -3 1 0
-804 -806 -6547 -3 -2 1 0
-804 -807 -6547 -3 1 0
-802 -805 -6548 -1 2 0
-802 -807 -6548 -1 -3 2 0
-804 -805 -6548 -3 -1 2 0
-804 -807 -6548 -3 2 0
-802 -805 -6549 -1 3 0
-802 -806 -6549 -1 -2 3 0
-803 -805 -6549 -2 -1 3 0
-803 -806 -6549 -2 3 0
-809 -812 -6550 -2 1 0
-809 -813 -6550 -2 -3 1 0
-810 -812 -6550 -3 -2 1 0
-810 -813 -6550 -3 1 0
-808 -811 -6551 -1 2 0
-808 -813 -6551 -1 -3 2 0
-810 -811 -6551 -3 -1 2 0
-810 -813 -6551 -3 2 0
-808 -811 -6552 -1 3 0
-808 -812 -6552 -1 -2 3 0
-809 -811 -6552 -2 -1 3 0
-809 -812 -6552 -2 3 0
-815 -818 -6553 -2 1 0
-815 -819 -6553 -2 -3 1 0
-816 -818 -6553 -3 -2 1 0
-816 -819 -6553 -3 1 0
-814 -817 -6554 -1 2 0
-814 -819 -6554 -1 -3 2 0
-816 -817 -6554 -3 -1 2 0
-816 -819 -6554 -3 2 0
-814 -817 -6555 -1 3 0
-814 -818 -6555 -1 -2 3 0
-815 -817 -6555 -2 -1 3 0
-815 -818 -6555 -2 3 0
-821 -824 -6556 -2 1 0
-821 -825 -6556 -2 -3 1 0
-822 -824 -6556 -3 -2 1 0
-822 -825 -6556 -3 1 0
-820 -823 -6557 -1 2 0
-820 -825 -6557 -1 -3 2 0
-822 -823 -6557 -3 -1 2 0
-822 -825 -6557 -3 2 0
-820 -823 -6558 -1 3 0
-820 -824 -6558 -1 -2 3 0
-821 -823 -6558 -2 -1 3 0
-821 -824 -6558 -2 3 0
-827 -830 -6559 -2 1 0
-827 -831 -6559 -2 -3 1 0
-828 -830 -6559 -3 -2 1 0
-828 -831 -6559 -3 1 0
-826 -829 -6560 -1 2 0
-826 -831 -6560 -1 -3 2 0
-828 -829 -6560 -3 -1 2 0
-828 -831 -6560 -3 2 0
-826 -829 -6561 -1 3 0
-826 -830 -6561 -1 -2 3 0
-827 -829 -6561 -2 -1 3 0
-827 -830 -6561 -2 3 0
-833 -836 -6562 -2 1 0
-833 -837 -6562 -2 -3 1 0
-834 -836 -6562 -3 -2 1 0
-834 -837 -6562 -3 1 0
-832 -835 -6563 -1 2 0
-832 -837 -6563 -1 -3 2 0
-834 -835 -6563 -3 -1 2 0
-834 -837 -6563 -3 2 0
-832 -835 -6564 -1 3 0
-832 -836 -6564 -1 -2 3 0
-833 -835 -6564 -2 -1 3 0
-833 -836 -6564 -2 3 0
-839 -842 -6565 -2 1 0
-839 -843 -6565 -2 -3 1 0
-840 -842 -6565 -3 -2 1 0
-840 -843 -6565 -3 1 0
-838 -841 -6566 -1 2 0
-838 -843 -6566 -1 -3 2 0
-840 -841 -6566 -3 -1 2 0
-840 -843 -6566 -3 2 0
-838 -841 -6567 -1 3 0
-838 -842 -6567 -1 -2 3 0
-839 -841 -6567 -2 -1 3 0
-839 -842 -6567 -2 3 0
-845 -848 -6568 -2 1 0
-845 -849 -6568 -2 -3 1 0
-846 -848 -6568 -3 -2 1 0
-846 -849 -6568 -3 1 0
-844 -847 -6569 -1 2 0
-844 -849 -6569 -1 -3 2 0
-846 -847 -6569 -3 -1 2 0
-846 -849 -6569 -3 2 0
-844 -847 -6570 -1 3 0
-844 -848 -6570 -1 -2 3 0
-845 -847 -6570 -2 -1 3 0
-845 -848 -6570 -2 3 0
-851 -854 -6571 -2 1 0
-851 -855 -6571 -2 -3 1 0
-852 -854 -6571 -3 -2 1 0
-852 -855 -6571 -3 1 0
-850 -853 -6572 -1 2 0
-850 -855 -6572 -1 -3 2 0
-852 -853 -6572 -3 -1 2 0
-852 -855 -6572 -3 2 0
-850 -853 -6573 -1 3 0
-850 -854 -6573 -1 -2 3 0
-851 -853 -6573 -2 -1 3 0
-851 -854 -6573 -2 3 0
-857 -860 -6574 -2 1 0
-857 -861 -6574 -2 -3 1 0
-858 -860 -6574 -3 -2 1 0
-858 -861 -6574 -3 1 0
-856 -859 -6575 -1 2 0
-856 -861 -6575 -1 -3 2 0
-858 -859 -6575 -3 -1 2 0
-858 -861 -6575 -3 2 0
-856 -859 -6576 -1 3 0
-856 -860 -6576 -1 -2 3 0
-857 -859 -6576 -2 -1 3 0
-857 -860 -6576 -2 3 0
-863 -866 -6577 -2 1 0
-863 -867 -6577 -2 -3 1 0
-864 -866 -6577 -3 -2 1 0
-864 -867 -6577 -3 1 0
-862 -865 -6578 -1 2 0
-862 -867 -6578 -1 -3 2 0
-864 -865 -6578 -3 -1 2 0
-864 -867 -6578 -3 2 0
-862 -865 -6579 -1 3 0
-862 -866 -6579 -1 -2 3 0
-863 -865 -6579 -2 -1 3 0
-863 -866 -6579 -2 3 0
-869 -872 -6580 -2 1 0
-869 -873 -6580 -2 -3 1 0
-870 -872 -6580 -3 -2 1 0
-870 -873 -6580 -3 1 0
-868 -871 -6581 -1 2 0
-868 -873 -6581 -1 -3 2 0
-870 -871 -6581 -3 -1 2 0
-870 -873 -6581 -3 2 0
-868 -871 -6582 -1 3 0
-868 -872 -6582 -1 -2 3 0
-869 -871 -6582 -2 -1 3 0
-869 -872 -6582 -2 3 0
-875 -878 -6583 -2 1 0
-875 -879 -6583 -2 -3 1 0
-876 -878 -6583 -3 -2 1 0
-876 -879 -6583 -3 1 0
-874 -877 -6584 -1 2 0
-874 -879 -6584 -1 -3 2 0
-876 -877 -6584 -3 -1 2 0
-876 -879 -6584 -3 2 0
-874 -877 -6585 -1 3 0
-874 -878 -6585 -1 -2 3 0
-875 -877 -6585 -2 -1 3 0
-875 -878 -6585 -2 3 0
-881 -884 -6586 -2 1 0
-881 -885 -6586 -2 -3 1 0
-882 -884 -6586 -3 -2 1 0
-882 -885 -6586 -3 1 0
-880 -883 -6587 -1 2 0
-880 -885 -6587 -1 -3 2 0
-882 -883 -6587 -3 -1 2 0
-882 -885 -6587 -3 2 0
-880 -883 -6588 -1 3 0
-880 -884 -6588 -1 -2 3 0
-881 -883 -6588 -2 -1 3 0
-881 -884 -6588 -2 3 0
-887 -890 -6589 -2 1 0
-887 -891 -6589 -2 -3 1 0
-888 -890 -6589 -3 -2 1 0
-888 -891 -6589 -3 1 0
-886 -889 -6590 -1 2 0
-886 -891 -6590 -1 -3 2 0
-888 -889 -6590 -3 -1 2 0
-888 -891 -6590 -3 2 0
-886 -889 -6591 -1 3 0
-886 -890 -6591 -1 -2 3 0
-887 -889 -6591 -2 -1 3 0
-887 -890 -6591 -2 3 0
-893 -896 -6592 -2 1 0
-893 -897 -6592 -2 -3 1 0
-894 -896 -6592 -3 -2 1 0
-894 -897 -6592 -3 1 0
-892 -895 -6593 -1 2 0
-892 -897 -6593 -1 -3 2 0
-894 -895 -6593 -3 -1 2 0
-894 -897 -6593 -3 2 0
-892 -895 -6594 -1 3 0
-892 -896 -6594 -1 -2 3 0
-893 -895 -6594 -2 -1 3 0
-893 -896 -6594 -2 3 0
-899 -902 -6595 -2 1 0
-899 -903 -6595 -2 -3 1 0
-900 -902 -6595 -3 -2 1 0
-900 -903 -6595 -3 1 0
-898 -901 -6596 -1 2 0
-898 -903 -6596 -1 -3 2 0
-900 -901 -6596 -3 -1 2 0
-900 -903 -6596 -3 2 0
-898 -901 -6597 -1 3 0
-898 -902 -6597 -1 -2 3 0
-899 -901 -6597 -2 -1 3 0
-899 -902 -6597 -2 3 0
-905 -908 -6598 -2 1 0
-905 -909 -6598 -2 -3 1 0
-906 -908 -6598 -3 -2 1 0
-906 -909 -6598 -3 1 0
-904 -907 -6599 -1 2 0
-904 -909 -6599 -1 -3 2 0
-906 -907 -6599 -3 -1 2 0
-906 -909 -6599 -3 2 0
-904 -907 -6600 -1 3 0
-904 -908 -6600 -1 -2 3 0
-905 -907 -6600 -2 -1 3 0
-905 -908 -6600 -2 3 0
-911 -914 -6601 -2 1 0
-911 -915 -6601 -2 -3 1 0
-912 -914 -6601 -3 -2 1 0
-912 -915 -6601 -3 1 0
-910 -913 -6602 -1 2 0
-910 -915 -6602 -1 -3 2 0
-912 -913 -6602 -3 -1 2 0
-912 -915 -6602 -3 2 0
-910 -913 -6603 -1 3 0
-910 -914 -6603 -1 -2 3 0
-911 -913 -6603 -2 -1 3 0
-911 -914 -6603 -2 3 0
-917 -920 -6604 -2 1 0
-917 -921 -6604 -2 -3 1 0
-918 -920 -6604 -3 -2 1 0
-918 -921 -6604 -3 1 0
-916 -919 -6605 -1 2 0
-916 -921 -6605 -1 -3 2 0
-918 -919 -6605 -3 -1 2 0
-918 -921 -6605 -3 2 0
-916 -919 -6606 -1 3 0
-916 -920 -6606 -1 -2 3 0
-917 -919 -6606 -2 -1 3 0
-917 -920 -6606 -2 3 0
-923 -926 -6607 -2 1 0
-923 -927 -6607 -2 -3 1 0
-924 -926 -6607 -3 -2 1 0
-924 -927 -6607 -3 1 0
-922 -925 -6608 -1 2 0
-922 -927 -6608 -1 -3 2 0
-924 -925 -6608 -3 -1 2 0
-924 -927 -6608 -3 2 0
-922 -925 -6609 -1 3 0
-922 -926 -6609 -1 -2 3 0
-923 -925 -6609 -2 -1 3 0
-923 -926 -6609 -2 3 0
-929 -932 -6610 -2 1 0
-929 -933 -6610 -2 -3 1 0
-930 -932 -6610 -3 -2 1 0
-930 -933 -6610 -3 1 0
-928 -931 -6611 -1 2 0
-928 -933 -6611 -1 -3 2 0
-930 -931 -6611 -3 -1 2 0
-930 -933 -6611 -3 2 0
-928 -931 -6612 -1 3 0
-928 -932 -6612 -1 -2 3 0
-929 -931 -6612 -2 -1 3 0
-929 -932 -6612 -2 3 0
-935 -938 -6613 -2 1 0
-935 -939 -6613 -2 -3 1 0
-936 -938 -6613 -3 -2 1 0
-936 -939 -6613 -3 1 0
-934 -937 -6614 -1 2 0
-934 -939 -6614 -1 -3 2 0
-936 -937 -6614 -3 -1 2 0
-936 -939 -6614 -3 2 0
-934 -937 -6615 -1 3 0
-934 -938 -6615 -1 -2 3 0
-935 -937 -6615 -2 -1 3 0
-935 -938 -6615 -2 3 0
-941 -944 -6616 -2 1 0
-941 -945 -6616 -2 -3 1 0
-942 -944 -6616 -3 -2 1 0
-942 -945 -6616 -3 1 0
-940 -943 -6617 -1 2 0
-940 -945 -6617 -1 -3 2 0
-942 -943 -6617 -3 -1 2 0
-942 -945 -6617 -3 2 0
-940 -943 -6618 -1 3 0
-940 -944 -6618 -1 -2 3 0
-941 -943 -6618 -2 -1 3 0
-941 -944 -6618 -2 3 0
-947 -950 -6619 -2 1 0
-947 -951 -6619 -2 -3 1 0
-948 -950 -6619 -3 -2 1 0
-948 -951 -6619 -3 1 0
-946 -949 -6620 -1 2 0
-946 -951 -6620 -1 -3 2 0
-948 -949 -6620 -3 -1 2 0
-948 -951 -6620 -3 2 0
-946 -949 -6621 -1 3 0
-946 -950 -6621 -1 -2 3 0
-947 -949 -6621 -2 -1 3 0
-947 -950 -6621 -2 3 0
-953 -956 -6622 -2 1 0
-953 -957 -6622 -2 -3 1 0
-954 -956 -6622 -3 -2 1 0
-954 -957 -6622 -3 1 0
-952 -955 -6623 -1 2 0
-952 -957 -6623 -1 -3 2 0
-954 -955 -6623 -3 -1 2 0
-954 -957 -6623 -3 2 0
-952 -955 -6624 -1 3 0
-952 -956 -6624 -1 -2 3 0
-953 -955 -6624 -2 -1 3 0
-953 -956 -6624 -2 3 0
-959 -962 -6625 -2 1 0
-959 -963 -6625 -2 -3 1 0
-960 -962 -6625 -3 -2 1 0
-960 -963 -6625 -3 1 0
-958 -961 -6626 -1 2 0
-958 -963 -6626 -1 -3 2 0
-960 -961 -6626 -3 -1 2 0
-960 -963 -6626 -3 2 0
-958 -961 -6627 -1 3 0
-958 -962 -6627 -1 -2 3 0
-959 -961 -6627 -2 -1 3 0
-959 -962 -6627 -2 3 0
-965 -968 -6628 -2 1 0
-965 -969 -6628 -2 -3 1 0
-966 -968 -6628 -3 -2 1 0
-966 -969 -6628 -3 1 0
-964 -967 -6629 -1 2 0
-964 -969 -6629 -1 -3 2 0
-966 -967 -6629 -3 -1 2 0
-966 -969 -6629 -3 2 0
-964 -967 -6630 -1 3 0
-964 -968 -6630 -1 -2 3 0
-965 -967 -6630 -2 -1 3 0
-965 -968 -6630 -2 3 0
-971 -974 -6631 -2 1 0
-971 -975 -6631 -2 -3 1 0
-972 -974 -6631 -3 -2 1 0
-972 -975 -6631 -3 1 0
-970 -973 -6632 -1 2 0
-970 -975 -6632 -1 -3 2 0
-972 -973 -6632 -3 -1 2 0
-972 -975 -6632 -3 2 0
-970 -973 -6633 -1 3 0
-970 -974 -6633 -1 -2 3 0
-971 -973 -6633 -2 -1 3 0
-971 -974 -6633 -2 3 0
-977 -980 -6634 -2 1 0
-977 -981 -6634 -2 -3 1 0
-978 -980 -6634 -3 -2 1 0
-978 -981 -6634 -3 1 0
-976 -979 -6635 -1 2 0
-976 -981 -6635 -1 -3 2 0
-978 -979 -6635 -3 -1 2 0
-978 -981 -6635 -3 2 0
-976 -979 -6636 -1 3 0
-976 -980 -6636 -1 -2 3 0
-977 -979 -6636 -2 -1 3 0
-977 -980 -6636 -2 3 0
-983 -986 -6637 -2 1 0
-983 -987 -6637 -2 -3 1 0
-984 -986 -6637 -3 -2 1 0
-984 -987 -6637 -3 1 0
-982 -985 -6638 -1 2 0
-982 -987 -6638 -1 -3 2 0
-984 -985 -6638 -3 -1 2 0
-984 -987 -6638 -3 2 0
-982 -985 -6639 -1 3 0
-982 -986 -6639 -1 -2 3 0
-983 -985 -6639 -2 -1 3 0
-983 -986 -6639 -2 3 0
-989 -992 -6640 -2 1 0
-989 -993 -6640 -2 -3 1 0
-990 -992 -6640 -3 -2 1 0
-990 -993 -6640 -3 1 0
-988 -991 -6641 -1 2 0
-988 -993 -6641 -1 -3 2 0
-990 -991 -6641 -3 -1 2 0
-990 -993 -6641 -3 2 0
-988 -991 -6642 -1 3 0
-988 -992 -6642 -1 -2 3 0
-989 -991 -6642 -2 -1 3 0
-989 -992 -6642 -2 3 0
-995 -998 -6643 -2 1 0
-995 -999 -6643 -2 -3 1 0
-996 -998 -6643 -3 -2 1 0
-996 -999 -6643 -3 1 0
-994 -997 -6644 -1 2 0
-994 -999 -6644 -1 -3 2 0
-996 -997 -6644 -3 -1 2 0
-996 -999 -6644 -3 2 0
-994 -997 -6645 -1 3 0
-994 -998 -6645 -1 -2 3 0
-995 -997 -6645 -2 -1 3 0
-995 -998 -6645 -2 3 0
-1001 -1004 -6646 -2 1 0
-1001 -1005 -6646 -2 -3 1 0
-1002 -1004 -6646 -3 -2 1 0
-1002 -1005 -6646 -3 1 0
-1000 -1003 -6647 -1 2 0
-1000 -1005 -6647 -1 -3 2 0
-1002 -1003 -6647 -3 -1 2 0
-1002 -1005 -6647 -3 2 0
-1000 -1003 -6648 -1 3 0
-1000 -1004 -6648 -1 -2 3 0
-1001 -1003 -6648 -2 -1 3 0
-1001 -1004 -6648 -2 3 0
-1007 -1010 -6649 -2 1 0
-1007 -1011 -6649 -2 -3 1 0
-1008 -1010 -6649 -3 -2 1 0
-1008 -1011 -6649 -3 1 0
-1006 -1009 -6650 -1 2 0
-1006 -1011 -6650 -1 -3 2 0
-1008 -1009 -6650 -3 -1 2 0
-1008 -1011 -6650 -3 2 0
-1006 -1009 -6651 -1 3 0
-1006 -1010 -6651 -1 -2 3 0
-1007 -1009 -6651 -2 -1 3 0
-1007 -1010 -6651 -2 3 0
-1013 -1016 -6652 -2 1 0
-1013 -1017 -6652 -2 -3 1 0
-1014 -1016 -6652 -3 -2 1 0
-1014 -1017 -6652 -3 1 0
-1012 -1015 -6653 -1 2 0
-1012 -1017 -6653 -1 -3 2 0
-1014 -1015 -6653 -3 -1 2 0
-1014 -1017 -6653 -3 2 0
-1012 -1015 -6654 -1 3 0
-1012 -1016 -6654 -1 -2 3 0
-1013 -1015 -6654 -2 -1 3 0
-1013 -1016 -6654 -2 3 0
-1019 -1022 -6655 -2 1 0
-1019 -1023 -6655 -2 -3 1 0
-1020 -1022 -6655 -3 -2 1 0
-1020 -1023 -6655 -3 1 0
-1018 -1021 -6656 -1 2 0
-1018 -1023 -6656 -1 -3 2 0
-1020 -1021 -6656 -3 -1 2 0
-1020 -1023 -6656 -3 2 0
-1018 -1021 -6657 -1 3 0
-1018 -1022 -6657 -1 -2 3 0
-1019 -1021 -6657 -2 -1 3 0
-1019 -1022 -6657 -2 3 0
-1025 -1028 -6658 -2 1 0
-1025 -1029 -6658 -2 -3 1 0
-1026 -1028 -6658 -3 -2 1 0
-1026 -1029 -6658 -3 1 0
-1024 -1027 -6659 -1 2 0
-1024 -1029 -6659 -1 -3 2 0
-1026 -1027 -6659 -3 -1 2 0
-1026 -1029 -6659 -3 2 0
-1024 -1027 -6660 -1 3 0
-1024 -1028 -6660 -1 -2 3 0
-1025 -1027 -6660 -2 -1 3 0
-1025 -1028 -6660 -2 3 0
-1031 -1034 -6661 -2 1 0
-1031 -1035 -6661 -2 -3 1 0
-1032 -1034 -6661 -3 -2 1 0
-1032 -1035 -6661 -3 1 0
-1030 -1033 -6662 -1 2 0
-1030 -1035 -6662 -1 -3 2 0
-1032 -1033 -6662 -3 -1 2 0
-1032 -1035 -6662 -3 2 0
-1030 -1033 -6663 -1 3 0
-1030 -1034 -6663 -1 -2 3 0
-1031 -1033 -6663 -2 -1 3 0
-1031 -1034 -6663 -2 3 0
-1037 -1040 -6664 -2 1 0
-1037 -1041 -6664 -2 -3 1 0
-1038 -1040 -6664 -3 -2 1 0
-1038 -1041 -6664 -3 1 0
-1036 -1039 -6665 -1 2 0
-1036 -1041 -6665 -1 -3 2 0
-1038 -1039 -6665 -3 -1 2 0
-1038 -1041 -6665 -3 2 0
-1036 -1039 -6666 -1 3 0
-1036 -1040 -6666 -1 -2 3 0
-1037 -1039 -6666 -2 -1 3 0
-1037 -1040 -6666 -2 3 0
-1043 -1046 -6667 -2 1 0
-1043 -1047 -6667 -2 -3 1 0
-1044 -1046 -6667 -3 -2 1 0
-1044 -1047 -6667 -3 1 0
-1042 -1045 -6668 -1 2 0
-1042 -1047 -6668 -1 -3 2 0
-1044 -1045 -6668 -3 -1 2 0
-1044 -1047 -6668 -3 2 0
-1042 -1045 -6669 -1 3 0
-1042 -1046 -6669 -1 -2 3 0
-1043 -1045 -6669 -2 -1 3 0
-1043 -1046 -6669 -2 3 0
-1049 -1052 -6670 -2 1 0
-1049 -1053 -6670 -2 -3 1 0
-1050 -1052 -6670 -3 -2 1 0
-1050 -1053 -6670 -3 1 0
-1048 -1051 -6671 -1 2 0
-1048 -1053 -6671 -1 -3 2 0
-1050 -1051 -6671 -3 -1 2 0
-1050 -1053 -6671 -3 2 0
-1048 -1051 -6672 -1 3 0
-1048 -1052 -6672 -1 -2 3 0
-1049 -1051 -6672 -2 -1 3 0
-1049 -1052 -6672 -2 3 0
-1055 -1058 -6673 -2 1 0
-1055 -1059 -6673 -2 -3 1 0
-1056 -1058 -6673 -3 -2 1 0
-1056 -1059 -6673 -3 1 0
-1054 -1057 -6674 -1 2 0
-1054 -1059 -6674 -1 -3 2 0
-1056 -1057 -6674 -3 -1 2 0
-1056 -1059 -6674 -3 2 0
-1054 -1057 -6675 -1 3 0
-1054 -1058 -6675 -1 -2 3 0
-1055 -1057 -6675 -2 -1 3 0
-1055 -1058 -6675 -2 3 0
-1061 -1064 -6676 -2 1 0
-1061 -1065 -6676 -2 -3 1 0
-1062 -1064 -6676 -3 -2 1 0
-1062 -1065 -6676 -3 1 0
-1060 -1063 -6677 -1 2 0
-1060 -1065 -6677 -1 -3 2 0
-1062 -1063 -6677 -3 -1 2 0
-1062 -1065 -6677 -3 2 0
-1060 -1063 -6678 -1 3 0
-1060 -1064 -6678 -1 -2 3 0
-1061 -1063 -6678 -2 -1 3 0
-1061 -1064 -6678 -2 3 0
-1067 -1070 -6679 -2 1 0
-1067 -1071 -6679 -2 -3 1 0
-1068 -1070 -6679 -3 -2 1 0
-1068 -1071 -6679 -3 1 0
-1066 -1069 -6680 -1 2 0
-1066 -1071 -6680 -1 -3 2 0
-1068 -1069 -6680 -3 -1 2 0
-1068 -1071 -6680 -3 2 0
-1066 -1069 -6681 -1 3 0
-1066 -1070 -6681 -1 -2 3 0
-1067 -1069 -6681 -2 -1 3 0
-1067 -1070 -6681 -2 3 0
-1073 -1076 -6682 -2 1 0
-1073 -1077 -6682 -2 -3 1 0
-1074 -1076 -6682 -3 -2 1 0
-1074 -1077 -6682 -3 1 0
-1072 -1075 -6683 -1 2 0
-1072 -1077 -6683 -1 -3 2 0
-1074 -1075 -6683 -3 -1 2 0
-1074 -1077 -6683 -3 2 0
-1072 -1075 -6684 -1 3 0
-1072 -1076 -6684 -1 -2 3 0
-1073 -1075 -6684 -2 -1 3 0
-1073 -1076 -6684 -2 3 0
-1079 -1082 -6685 -2 1 0
-1079 -1083 -6685 -2 -3 1 0
-1080 -1082 -6685 -3 -2 1 0
-1080 -1083 -6685 -3 1 0
-1078 -1081 -6686 -1 2 0
-1078 -1083 -6686 -1 -3 2 0
-1080 -1081 -6686 -3 -1 2 0
-1080 -1083 -6686 -3 2 0
-1078 -1081 -6687 -1 3 0
-1078 -1082 -6687 -1 -2 3 0
-1079 -1081 -6687 -2 -1 3 0
-1079 -1082 -6687 -2 3 0
-1085 -1088 -6688 -2 1 0
-1085 -1089 -6688 -2 -3 1 0
-1086 -1088 -6688 -3 -2 1 0
-1086 -1089 -6688 -3 1 0
-1084 -1087 -6689 -1 2 0
-1084 -1089 -6689 -1 -3 2 0
-1086 -1087 -6689 -3 -1 2 0
-1086 -1089 -6689 -3 2 0
-1084 -1087 -6690 -1 3 0
-1084 -1088 -6690 -1 -2 3 0
-1085 -1087 -6690 -2 -1 3 0
-1085 -1088 -6690 -2 3 0
-1091 -1094 -6691 -2 1 0
-1091 -1095 -6691 -2 -3 1 0
-1092 -1094 -6691 -3 -2 1 0
-1092 -1095 -6691 -3 1 0
-1090 -1093 -6692 -1 2 0
-1090 -1095 -6692 -1 -3 2 0
-1092 -1093 -6692 -3 -1 2 0
-1092 -1095 -6692 -3 2 0
-1090 -1093 -6693 -1 3 0
-1090 -1094 -6693 -1 -2 3 0
-1091 -1093 -6693 -2 -1 3 0
-1091 -1094 -6693 -2 3 0
-1097 -1100 -6694 -2 1 0
-1097 -1101 -6694 -2 -3 1 0
-1098 -1100 -6694 -3 -2 1 0
-1098 -1101 -6694 -3 1 0
-1096 -1099 -6695 -1 2 0
-1096 -1101 -6695 -1 -3 2 0
-1098 -1099 -6695 -3 -1 2 0
-1098 -1101 -6695 -3 2 0
-1096 -1099 -6696 -1 3 0
-1096 -1100 -6696 -1 -2 3 0
-1097 -1099 -6696 -2 -1 3 0
-1097 -1100 -6696 -2 3 0
-1103 -1106 -6697 -2 1 0
-1103 -1107 -6697 -2 -3 1 0
-1104 -1106 -6697 -3 -2 1 0
-1104 -1107 -6697 -3 1 0
-1102 -1105 -6698 -1 2 0
-1102 -1107 -6698 -1 -3 2 0
-1104 -1105 -6698 -3 -1 2 0
-1104 -1107 -6698 -3 2 0
-1102 -1105 -6699 -1 3 0
-1102 -1106 -6699 -1 -2 3 0
-1103 -1105 -6699 -2 -1 3 0
-1103 -1106 -6699 -2 3 0
-1109 -1112 -6700 -2 1 0
-1109 -1113 -6700 -2 -3 1 0
-1110 -1112 -6700 -3 -2 1 0
-1110 -1113 -6700 -3 1 0
-1108 -1111 -6701 -1 2 0
-1108 -1113 -6701 -1 -3 2 0
-1110 -1111 -6701 -3 -1 2 0
-1110 -1113 -6701 -3 2 0
-1108 -1111 -6702 -1 3 0
-1108 -1112 -6702 -1 -2 3 0
-1109 -1111 -6702 -2 -1 3 0
-1109 -1112 -6702 -2 3 0
-1115 -1118 -6703 -2 1 0
-1115 -1119 -6703 -2 -3 1 0
-1116 -1118 -6703 -3 -2 1 0
-1116 -1119 -6703 -3 1 0
-1114 -1117 -6704 -1 2 0
-1114 -1119 -6704 -1 -3 2 0
-1116 -1117 -6704 -3 -1 2 0
-1116 -1119 -6704 -3 2 0
-1114 -1117 -6705 -1 3 0
-1114 -1118 -6705 -1 -2 3 0
-1115 -1117 -6705 -2 -1 3 0
-1115 -1118 -6705 -2 3 0
-1121 -1124 -6706 -2 1 0
-1121 -1125 -6706 -2 -3 1 0
-1122 -1124 -6706 -3 -2 1 0
-1122 -1125 -6706 -3 1 0
-1120 -1123 -6707 -1 2 0
-1120 -1125 -6707 -1 -3 2 0
-1122 -1123 -6707 -3 -1 2 0
-1122 -1125 -6707 -3 2 0
-1120 -1123 -6708 -1 3 0
-1120 -1124 -6708 -1 -2 3 0
-1121 -1123 -6708 -2 -1 3 0
-1121 -1124 -6708 -2 3 0
-1127 -1130 -6709 -2 1 0
-1127 -1131 -6709 -2 -3 1 0
-1128 -1130 -6709 -3 -2 1 0
-1128 -1131 -6709 -3 1 0
-1126 -1129 -6710 -1 2 0
-1126 -1131 -6710 -1 -3 2 0
-1128 -1129 -6710 -3 -1 2 0
-1128 -1131 -6710 -3 2 0
-1126 -1129 -6711 -1 3 0
-1126 -1130 -6711 -1 -2 3 0
-1127 -1129 -6711 -2 -1 3 0
-1127 -1130 -6711 -2 3 0
-1133 -1136 -6712 -2 1 0
-1133 -1137 -6712 -2 -3 1 0
-1134 -1136 -6712 -3 -2 1 0
-1134 -1137 -6712 -3 1 0
-1132 -1135 -6713 -1 2 0
-1132 -1137 -6713 -1 -3 2 0
-1134 -1135 -6713 -3 -1 2 0
-1134 -1137 -6713 -3 2 0
-1132 -1135 -6714 -1 3 0
-1132 -1136 -6714 -1 -2 3 0
-1133 -1135 -6714 -2 -1 3 0
-1133 -1136 -6714 -2 3 0
-1139 -1142 -6715 -2 1 0
-1139 -1143 -6715 -2 -3 1 0
-1140 -1142 -6715 -3 -2 1 0
-1140 -1143 -6715 -3 1 0
-1138 -1141 -6716 -1 2 0
-1138 -1143 -6716 -1 -3 2 0
-1140 -1141 -6716 -3 -1 2 0
-1140 -1143 -6716 -3 2 0
-1138 -1141 -6717 -1 3 0
-1138 -1142 -6717 -1 -2 3 0
-1139 -1141 -6717 -2 -1 3 0
-1139 -1142 -6717 -2 3 0
-1145 -1148 -6718 -2 1 0
-1145 -1149 -6718 -2 -3 1 0
-1146 -1148 -6718 -3 -2 1 0
-1146 -1149 -6718 -3 1 0
-1144 -1147 -6719 -1 2 0
-1144 -1149 -6719 -1 -3 2 0
-1146 -1147 -6719 -3 -1 2 0
-1146 -1149 -6719 -3 2 0
-1144 -1147 -6720 -1 3 0
-1144 -1148 -6720 -1 -2 3 0
-1145 -1147 -6720 -2 -1 3 0
-1145 -1148 -6720 -2 3 0
-1151 -1154 -6721 -2 1 0
-1151 -1155 -6721 -2 -3 1 0
-1152 -1154 -6721 -3 -2 1 0
-1152 -1155 -6721 -3 1 0
-1150 -1153 -6722 -1 2 0
-1150 -1155 -6722 -1 -3 2 0
-1152 -1153 -6722 -3 -1 2 0
-1152 -1155 -6722 -3 2 0
-1150 -1153 -6723 -1 3 0
-1150 -1154 -6723 -1 -2 3 0
-1151 -1153 -6723 -2 -1 3 0
-1151 -1154 -6723 -2 3 0
-1157 -1160 -6724 -2 1 0
-1157 -1161 -6724 -2 -3 1 0
-1158 -1160 -6724 -3 -2 1 0
-1158 -1161 -6724 -3 1 0
-1156 -1159 -6725 -1 2 0
-1156 -1161 -6725 -1 -3 2 0
-1158 -1159 -6725 -3 -1 2 0
-1158 -1161 -6725 -3 2 0
-1156 -1159 -6726 -1 3 0
-1156 -1160 -6726 -1 -2 3 0
-1157 -1159 -6726 -2 -1 3 0
-1157 -1160 -6726 -2 3 0
-1163 -1166 -6727 -2 1 0
-1163 -1167 -6727 -2 -3 1 0
-1164 -1166 -6727 -3 -2 1 0
-1164 -1167 -6727 -3 1 0
-1162 -1165 -6728 -1 2 0
-1162 -1167 -6728 -1 -3 2 0
-1164 -1165 -6728 -3 -1 2 0
-1164 -1167 -6728 -3 2 0
-1162 -1165 -6729 -1 3 0
-1162 -1166 -6729 -1 -2 3 0
-1163 -1165 -6729 -2 -1 3 0
-1163 -1166 -6729 -2 3 0
-1169 -1172 -6730 -2 1 0
-1169 -1173 -6730 -2 -3 1 0
-1170 -1172 -6730 -3 -2 1 0
-1170 -1173 -6730 -3 1 0
-1168 -1171 -6731 -1 2 0
-1168 -1173 -6731 -1 -3 2 0
-1170 -1171 -6731 -3 -1 2 0
-1170 -1173 -6731 -3 2 0
-1168 -1171 -6732 -1 3 0
-1168 -1172 -6732 -1 -2 3 0
-1169 -1171 -6732 -2 -1 3 0
-1169 -1172 -6732 -2 3 0
-1175 -1178 -6733 -2 1 0
-1175 -1179 -6733 -2 -3 1 0
-1176 -1178 -6733 -3 -2 1 0
-1176 -1179 -6733 -3 1 0
-1174 -1177 -6734 -1 2 0
-1174 -1179 -6734 -1 -3 2 0
-1176 -1177 -6734 -3 -1 2 0
-1176 -1179 -6734 -3 2 0
-1174 -1177 -6735 -1 3 0
-1174 -1178 -6735 -1 -2 3 0
-1175 -1177 -6735 -2 -1 3 0
-1175 -1178 -6735 -2 3 0
-1181 -1184 -6736 -2 1 0
-1181 -1185 -6736 -2 -3 1 0
-1182 -1184 -6736 -3 -2 1 0
-1182 -1185 -6736 -3 1 0
-1180 -1183 -6737 -1 2 0
-1180 -1185 -6737 -1 -3 2 0
-1182 -1183 -6737 -3 -1 2 0
-1182 -1185 -6737 -3 2 0
-1180 -1183 -6738 -1 3 0
-1180 -1184 -6738 -1 -2 3 0
-1181 -1183 -6738 -2 -1 3 0
-1181 -1184 -6738 -2 3 0
-1187 -1190 -6739 -2 1 0
-1187 -1191 -6739 -2 -3 1 0
-1188 -1190 -6739 -3 -2 1 0
-1188 -1191 -6739 -3 1 0
-1186 -1189 -6740 -1 2 0
-1186 -1191 -6740 -1 -3 2 0
-1188 -1189 -6740 -3 -1 2 0
-1188 -1191 -6740 -3 2 0
-1186 -1189 -6741 -1 3 0
-1186 -1190 -6741 -1 -2 3 0
-1187 -1189 -6741 -2 -1 3 0
-1187 -1190 -6741 -2 3 0
-1193 -1196 -6742 -2 1 0
-1193 -1197 -6742 -2 -3 1 0
-1194 -1196 -6742 -3 -2 1 0
-1194 -1197 -6742 -3 1 0
-1192 -1195 -6743 -1 2 0
-1192 -1197 -6743 -1 -3 2 0
-1194 -1195 -6743 -3 -1 2 0
-1194 -1197 -6743 -3 2 0
-1192 -1195 -6744 -1 3 0
-1192 -1196 -6744 -1 -2 3 0
-1193 -1195 -6744 -2 -1 3 0
-1193 -1196 -6744 -2 3 0
-1199 -1202 -6745 -2 1 0
-1199 -1203 -6745 -2 -3 1 0
-1200 -1202 -6745 -3 -2 1 0
-1200 -1203 -6745 -3 1 0
-1198 -1201 -6746 -1 2 0
-1198 -1203 -6746 -1 -3 2 0
-1200 -1201 -6746 -3 -1 2 0
-1200 -1203 -6746 -3 2 0
-1198 -1201 -6747 -1 3 0
-1198 -1202 -6747 -1 -2 3 0
-1199 -1201 -6747 -2 -1 3 0
-1199 -1202 -6747 -2 3 0
-1205 -1208 -6748 -2 1 0
-1205 -1209 -6748 -2 -3 1 0
-1206 -1208 -6748 -3 -2 1 0
-1206 -1209 -6748 -3 1 0
-1204 -1207 -6749 -1 2 0
-1204 -1209 -6749 -1 -3 2 0
-1206 -1207 -6749 -3 -1 2 0
-1206 -1209 -6749 -3 2 0
-1204 -1207 -6750 -1 3 0
-1204 -1208 -6750 -1 -2 3 0
-1205 -1207 -6750 -2 -1 3 0
-1205 -1208 -6750 -2 3 0
-1211 -1214 -6751 -2 1 0
-1211 -1215 -6751 -2 -3 1 0
-1212 -1214 -6751 -3 -2 1 0
-1212 -1215 -6751 -3 1 0
-1210 -1213 -6752 -1 2 0
-1210 -1215 -6752 -1 -3 2 0
-1212 -1213 -6752 -3 -1 2 0
-1212 -1215 -6752 -3 2 0
-1210 -1213 -6753 -1 3 0
-1210 -1214 -6753 -1 -2 3 0
-1211 -1213 -6753 -2 -1 3 0
-1211 -1214 -6753 -2 3 0
-1217 -1220 -6754 -2 1 0
-1217 -1221 -6754 -2 -3 1 0
-1218 -1220 -6754 -3 -2 1 0
-1218 -1221 -6754 -3 1 0
-1216 -1219 -6755 -1 2 0
-1216 -1221 -6755 -1 -3 2 0
-1218 -1219 -6755 -3 -1 2 0
-1218 -1221 -6755 -3 2 0
-1216 -1219 -6756 -1 3 0
-1216 -1220 -6756 -1 -2 3 0
-1217 -1219 -6756 -2 -1 3 0
-1217 -1220 -6756 -2 3 0
-1223 -1226 -6757 -2 1 0
-1223 -1227 -6757 -2 -3 1 0
-1224 -1226 -6757 -3 -2 1 0
-1224 -1227 -6757 -3 1 0
-1222 -1225 -6758 -1 2 0
-1222 -1227 -6758 -1 -3 2 0
-1224 -1225 -6758 -3 -1 2 0
-1224 -1227 -6758 -3 2 0
-1222 -1225 -6759 -1 3 0
-1222 -1226 -6759 -1 -2 3 0
-1223 -1225 -6759 -2 -1 3 0
-1223 -1226 -6759 -2 3 0
-1229 -1232 -6760 -2 1 0
-1229 -1233 -6760 -2 -3 1 0
-1230 -1232 -6760 -3 -2 1 0
-1230 -1233 -6760 -3 1 0
-1228 -1231 -6761 -1 2 0
-1228 -1233 -6761 -1 -3 2 0
-1230 -1231 -6761 -3 -1 2 0
-1230 -1233 -6761 -3 2 0
-1228 -1231 -6762 -1 3 0
-1228 -1232 -6762 -1 -2 3 0
-1229 -1231 -6762 -2 -1 3 0
-1229 -1232 -6762 -2 3 0
-1235 -1238 -6763 -2 1 0
-1235 -1239 -6763 -2 -3 1 0
-1236 -1238 -6763 -3 -2 1 0
-1236 -1239 -6763 -3 1 0
-1234 -1237 -6764 -1 2 0
-1234 -1239 -6764 -1 -3 2 0
-1236 -1237 -6764 -3 -1 2 0
-1236 -1239 -6764 -3 2 0
-1234 -1237 -6765 -1 3 0
-1234 -1238 -6765 -1 -2 3 0
-1235 -1237 -6765 -2 -1 3 0
-1235 -1238 -6765 -2 3 0
-1241 -1244 -6766 -2 1 0
-1241 -1245 -6766 -2 -3 1 0
-1242 -1244 -6766 -3 -2 1 0
-1242 -1245 -6766 -3 1 0
-1240 -1243 -6767 -1 2 0
-1240 -1245 -6767 -1 -3 2 0
-1242 -1243 -6767 -3 -1 2 0
-1242 -1245 -6767 -3 2 0
-1240 -1243 -6768 -1 3 0
-1240 -1244 -6768 -1 -2 3 0
-1241 -1243 -6768 -2 -1 3 0
-1241 -1244 -6768 -2 3 0
-1247 -1250 -6769 -2 1 0
-1247 -1251 -6769 -2 -3 1 0
-1248 -1250 -6769 -3 -2 1 0
-1248 -1251 -6769 -3 1 0
-1246 -1249 -6770 -1 2 0
-1246 -1251 -6770 -1 -3 2 0
-1248 -1249 -6770 -3 -1 2 0
-1248 -1251 -6770 -3 2 0
-1246 -1249 -6771 -1 3 0
-1246 -1250 -6771 -1 -2 3 0
-1247 -1249 -6771 -2 -1 3 0
-1247 -1250 -6771 -2 3 0
-1253 -1256 -6772 -2 1 0
-1253 -1257 -6772 -2 -3 1 0
-1254 -1256 -6772 -3 -2 1 0
-1254 -1257 -6772 -3 1 0
-1252 -1255 -6773 -1 2 0
-1252 -1257 -6773 -1 -3 2 0
-1254 -1255 -6773 -3 -1 2 0
-1254 -1257 -6773 -3 2 0
-1252 -1255 -6774 -1 3 0
-1252 -1256 -6774 -1 -2 3 0
-1253 -1255 -6774 -2 -1 3 0
-1253 -1256 -6774 -2 3 0
-1259 -1262 -6775 -2 1 0
-1259 -1263 -6775 -2 -3 1 0
-1260 -1262 -6775 -3 -2 1 0
-1260 -1263 -6775 -3 1 0
-1258 -1261 -6776 -1 2 0
-1258 -1263 -6776 -1 -3 2 0
-1260 -1261 -6776 -3 -1 2 0
-1260 -1263 -6776 -3 2 0
-1258 -1261 -6777 -1 3 0
-1258 -1262 -6777 -1 -2 3 0
-1259 -1261 -6777 -2 -1 3 0
-1259 -1262 -6777 -2 3 0
-1265 -1268 -6778 -2 1 0
-1265 -1269 -6778 -2 -3 1 0
-1266 -1268 -6778 -3 -2 1 0
-1266 -1269 -6778 -3 1 0
-1264 -1267 -6779 -1 2 0
-1264 -1269 -6779 -1 -3 2 0
-1266 -1267 -6779 -3 -1 2 0
-1266 -1269 -6779 -3 2 0
-1264 -1267 -6780 -1 3 0
-1264 -1268 -6780 -1 -2 3 0
-1265 -1267 -6780 -2 -1 3 0
-1265 -1268 -6780 -2 3 0
-1271 -1274 -6781 -2 1 0
-1271 -1275 -6781 -2 -3 1 0
-1272 -1274 -6781 -3 -2 1 0
-1272 -1275 -6781 -3 1 0
-1270 -1273 -6782 -1 2 0
-1270 -1275 -6782 -1 -3 2 0
-1272 -1273 -6782 -3 -1 2 0
-1272 -1275 -6782 -3 2 0
-1270 -1273 -6783 -1 3 0
-1270 -1274 -6783 -1 -2 3 0
-1271 -1273 -6783 -2 -1 3 0
-1271 -1274 -6783 -2 3 0
-1277 -1280 -6784 -2 1 0
-1277 -1281 -6784 -2 -3 1 0
-1278 -1280 -6784 -3 -2 1 0
-1278 -1281 -6784 -3 1 0
-1276 -1279 -6785 -1 2 0
-1276 -1281 -6785 -1 -3 2 0
-1278 -1279 -6785 -3 -1 2 0
-1278 -1281 -6785 -3 2 0
-1276 -1279 -6786 -1 3 0
-1276 -1280 -6786 -1 -2 3 0
-1277 -1279 -6786 -2 -1 3 0
-1277 -1280 -6786 -2 3 0
-1283 -1286 -6787 -2 1 0
-1283 -1287 -6787 -2 -3 1 0
-1284 -1286 -6787 -3 -2 1 0
-1284 -1287 -6787 -3 1 0
-1282 -1285 -6788 -1 2 0
-1282 -1287 -6788 -1 -3 2 0
-1284 -1285 -6788 -3 -1 2 0
-1284 -1287 -6788 -3 2 0
-1282 -1285 -6789 -1 3 0
-1282 -1286 -6789 -1 -2 3 0
-1283 -1285 -6789 -2 -1 3 0
-1283 -1286 -6789 -2 3 0
-1289 -1292 -6790 -2 1 0
-1289 -1293 -6790 -2 -3 1 0
-1290 -1292 -6790 -3 -2 1 0
-1290 -1293 -6790 -3 1 0
-1288 -1291 -6791 -1 2 0
-1288 -1293 -6791 -1 -3 2 0
-1290 -1291 -6791 -3 -1 2 0
-1290 -1293 -6791 -3 2 0
-1288 -1291 -6792 -1 3 0
-1288 -1292 -6792 -1 -2 3 0
-1289 -1291 -6792 -2 -1 3 0
-1289 -1292 -6792 -2 3 0
-1295 -1298 -6793 -2 1 0
-1295 -1299 -6793 -2 -3 1 0
-1296 -1298 -6793 -3 -2 1 0
-1296 -1299 -6793 -3 1 0
-1294 -1297 -6794 -1 2 0
-1294 -1299 -6794 -1 -3 2 0
-1296 -1297 -6794 -3 -1 2 0
-1296 -1299 -6794 -3 2 0
-1294 -1297 -6795 -1 3 0
-1294 -1298 -6795 -1 -2 3 0
-1295 -1297 -6795 -2 -1 3 0
-1295 -1298 -6795 -2 3 0
-1301 -1304 -6796 -2 1 0
-1301 -1305 -6796 -2 -3 1 0
-1302 -1304 -6796 -3 -2 1 0
-1302 -1305 -6796 -3 1 0
-1300 -1303 -6797 -1 2 0
-1300 -1305 -6797 -1 -3 2 0
-1302 -1303 -6797 -3 -1 2 0
-1302 -1305 -6797 -3 2 0
-1300 -1303 -6798 -1 3 0
-1300 -1304 -6798 -1 -2 3 0
-1301 -1303 -6798 -2 -1 3 0
-1301 -1304 -6798 -2 3 0
-1307 -1310 -6799 -2 1 0
-1307 -1311 -6799 -2 -3 1 0
-1308 -1310 -6799 -3 -2 1 0
-1308 -1311 -6799 -3 1 0
-1306 -1309 -6800 -1 2 0
-1306 -1311 -6800 -1 -3 2 0
-1308 -1309 -6800 -3 -1 2 0
-1308 -1311 -6800 -3 2 0
-1306 -1309 -6801 -1 3 0
-1306 -1310 -6801 -1 -2 3 0
-1307 -1309 -6801 -2 -1 3 0
-1307 -1310 -6801 -2 3 0
-1313 -1316 -6802 -2 1 0
-1313 -1317 -6802 -2 -3 1 0
-1314 -1316 -6802 -3 -2 1 0
-1314 -1317 -6802 -3 1 0
-1312 -1315 -6803 -1 2 0
-1312 -1317 -6803 -1 -3 2 0
-1314 -1315 -6803 -3 -1 2 0
-1314 -1317 -6803 -3 2 0
-1312 -1315 -6804 -1 3 0
-1312 -1316 -6804 -1 -2 3 0
-1313 -1315 -6804 -2 -1 3 0
-1313 -1316 -6804 -2 3 0
-1319 -1322 -6805 -2 1 0
-1319 -1323 -6805 -2 -3 1 0
-1320 -1322 -6805 -3 -2 1 0
-1320 -1323 -6805 -3 1 0
-1318 -1321 -6806 -1 2 0
-1318 -1323 -6806 -1 -3 2 0
-1320 -1321 -6806 -3 -1 2 0
-1320 -1323 -6806 -3 2 0
-1318 -1321 -6807 -1 3 0
-1318 -1322 -6807 -1 -2 3 0
-1319 -1321 -6807 -2 -1 3 0
-1319 -1322 -6807 -2 3 0
-1325 -1328 -6808 -2 1 0
-1325 -1329 -6808 -2 -3 1 0
-1326 -1328 -6808 -3 -2 1 0
-1326 -1329 -6808 -3 1 0
-1324 -1327 -6809 -1 2 0
-1324 -1329 -6809 -1 -3 2 0
-1326 -1327 -6809 -3 -1 2 0
-1326 -1329 -6809 -3 2 0
-1324 -1327 -6810 -1 3 0
-1324 -1328 -6810 -1 -2 3 0
-1325 -1327 -6810 -2 -1 3 0
-1325 -1328 -6810 -2 3 0
-1331 -1334 -6811 -2 1 0
-1331 -1335 -6811 -2 -3 1 0
-1332 -1334 -6811 -3 -2 1 0
-1332 -1335 -6811 -3 1 0
-1330 -1333 -6812 -1 2 0
-1330 -1335 -6812 -1 -3 2 0
-1332 -1333 -6812 -3 -1 2 0
-1332 -1335 -6812 -3 2 0
-1330 -1333 -6813 -1 3 0
-1330 -1334 -6813 -1 -2 3 0
-1331 -1333 -6813 -2 -1 3 0
-1331 -1334 -6813 -2 3 0
-1337 -1340 -6814 -2 1 0
-1337 -1341 -6814 -2 -3 1 0
-1338 -1340 -6814 -3 -2 1 0
-1338 -1341 -6814 -3 1 0
-1336 -1339 -6815 -1 2 0
-1336 -1341 -6815 -1 -3 2 0
-1338 -1339 -6815 -3 -1 2 0
-1338 -1341 -6815 -3 2 0
-1336 -1339 -6816 -1 3 0
-1336 -1340 -6816 -1 -2 3 0
-1337 -1339 -6816 -2 -1 3 0
-1337 -1340 -6816 -2 3 0
-1343 -1346 -6817 -2 1 0
-1343 -1347 -6817 -2 -3 1 0
-1344 -1346 -6817 -3 -2 1 0
-1344 -1347 -6817 -3 1 0
-1342 -1345 -6818 -1 2 0
-1342 -1347 -6818 -1 -3 2 0
-1344 -1345 -6818 -3 -1 2 0
-1344 -1347 -6818 -3 2 0
-1342 -1345 -6819 -1 3 0
-1342 -1346 -6819 -1 -2 3 0
-1343 -1345 -6819 -2 -1 3 0
-1343 -1346 -6819 -2 3 0
-1349 -1352 -6820 -2 1 0
-1349 -1353 -6820 -2 -3 1 0
-1350 -1352 -6820 -3 -2 1 0
-1350 -1353 -6820 -3 1 0
-1348 -1351 -6821 -1 2 0
-1348 -1353 -6821 -1 -3 2 0
-1350 -1351 -6821 -3 -1 2 0
-1350 -1353 -6821 -3 2 0
-1348 -1351 -6822 -1 3 0
-1348 -1352 -6822 -1 -2 3 0
-1349 -1351 -6822 -2 -1 3 0
-1349 -1352 -6822 -2 3 0
-1355 -1358 -6823 -2 1 0
-1355 -1359 -6823 -2 -3 1 0
-1356 -1358 -6823 -3 -2 1 0
-1356 -1359 -6823 -3 1 0
-1354 -1357 -6824 -1 2 0
-1354 -1359 -6824 -1 -3 2 0
-1356 -1357 -6824 -3 -1 2 0
-1356 -1359 -6824 -3 2 0
-1354 -1357 -6825 -1 3 0
-1354 -1358 -6825 -1 -2 3 0
-1355 -1357 -6825 -2 -1 3 0
-1355 -1358 -6825 -2 3 0
-1361 -1364 -6826 -2 1 0
-1361 -1365 -6826 -2 -3 1 0
-1362 -1364 -6826 -3 -2 1 0
-1362 -1365 -6826 -3 1 0
-1360 -1363 -6827 -1 2 0
-1360 -1365 -6827 -1 -3 2 0
-1362 -1363 -6827 -3 -1 2 0
-1362 -1365 -6827 -3 2 0
-1360 -1363 -6828 -1 3 0
-1360 -1364 -6828 -1 -2 3 0
-1361 -1363 -6828 -2 -1 3 0
-1361 -1364 -6828 -2 3 0
-1367 -1370 -6829 -2 1 0
-1367 -1371 -6829 -2 -3 1 0
-1368 -1370 -6829 -3 -2 1 0
-1368 -1371 -6829 -3 1 0
-1366 -1369 -6830 -1 2 0
-1366 -1371 -6830 -1 -3 2 0
-1368 -1369 -6830 -3 -1 2 0
-1368 -1371 -6830 -3 2 0
-1366 -1369 -6831 -1 3 0
-1366 -1370 -6831 -1 -2 3 0
-1367 -1369 -6831 -2 -1 3 0
-1367 -1370 -6831 -2 3 0
-1373 -1376 -6832 -2 1 0
-1373 -1377 -6832 -2 -3 1 0
-1374 -1376 -6832 -3 -2 1 0
-1374 -1377 -6832 -3 1 0
-1372 -1375 -6833 -1 2 0
-1372 -1377 -6833 -1 -3 2 0
-1374 -1375 -6833 -3 -1 2 0
-1374 -1377 -6833 -3 2 0
-1372 -1375 -6834 -1 3 0
-1372 -1376 -6834 -1 -2 3 0
-1373 -1375 -6834 -2 -1 3 0
-1373 -1376 -6834 -2 3 0
-1379 -1382 -6835 -2 1 0
-1379 -1383 -6835 -2 -3 1 0
-1380 -1382 -6835 -3 -2 1 0
-1380 -1383 -6835 -3 1 0
-1378 -1381 -6836 -1 2 0
-1378 -1383 -6836 -1 -3 2 0
-1380 -1381 -6836 -3 -1 2 0
-1380 -1383 -6836 -3 2 0
-1378 -1381 -6837 -1 3 0
-1378 -1382 -6837 -1 -2 3 0
-1379 -1381 -6837 -2 -1 3 0
-1379 -1382 -6837 -2 3 0
-1385 -1388 -6838 -2 1 0
-1385 -1389 -6838 -2 -3 1 0
-1386 -1388 -6838 -3 -2 1 0
-1386 -1389 -6838 -3 1 0
-1384 -1387 -6839 -1 2 0
-1384 -1389 -6839 -1 -3 2 0
-1386 -1387 -6839 -3 -1 2 0
-1386 -1389 -6839 -3 2 0
-1384 -1387 -6840 -1 3 0
-1384 -1388 -6840 -1 -2 3 0
-1385 -1387 -6840 -2 -1 3 0
-1385 -1388 -6840 -2 3 0
-1391 -1394 -6841 -2 1 0
-1391 -1395 -6841 -2 -3 1 0
-1392 -1394 -6841 -3 -2 1 0
-1392 -1395 -6841 -3 1 0
-1390 -1393 -6842 -1 2 0
-1390 -1395 -6842 -1 -3 2 0
-1392 -1393 -6842 -3 -1 2 0
-1392 -1395 -6842 -3 2 0
-1390 -1393 -6843 -1 3 0
-1390 -1394 -6843 -1 -2 3 0
-1391 -1393 -6843 -2 -1 3 0
-1391 -1394 -6843 -2 3 0
-1397 -1400 -6844 -2 1 0
-1397 -1401 -6844 -2 -3 1 0
-1398 -1400 -6844 -3 -2 1 0
-1398 -1401 -6844 -3 1 0
-1396 -1399 -6845 -1 2 0
-1396 -1401 -6845 -1 -3 2 0
-1398 -1399 -6845 -3 -1 2 0
-1398 -1401 -6845 -3 2 0
-1396 -1399 -6846 -1 3 0
-1396 -1400 -6846 -1 -2 3 0
-1397 -1399 -6846 -2 -1 3 0
-1397 -1400 -6846 -2 3 0
-1403 -1406 -6847 -2 1 0
-1403 -1407 -6847 -2 -3 1 0
-1404 -1406 -6847 -3 -2 1 0
-1404 -1407 -6847 -3 1 0
-1402 -1405 -6848 -1 2 0
-1402 -1407 -6848 -1 -3 2 0
-1404 -1405 -6848 -3 -1 2 0
-1404 -1407 -6848 -3 2 0
-1402 -1405 -6849 -1 3 0
-1402 -1406 -6849 -1 -2 3 0
-1403 -1405 -6849 -2 -1 3 0
-1403 -1406 -6849 -2 3 0
-1409 -1412 -6850 -2 1 0
-1409 -1413 -6850 -2 -3 1 0
-1410 -1412 -6850 -3 -2 1 0
-1410 -1413 -6850 -3 1 0
-1408 -1411 -6851 -1 2 0
-1408 -1413 -6851 -1 -3 2 0
-1410 -1411 -6851 -3 -1 2 0
-1410 -1413 -6851 -3 2 0
-1408 -1411 -6852 -1 3 0
-1408 -1412 -6852 -1 -2 3 0
-1409 -1411 -6852 -2 -1 3 0
-1409 -1412 -6852 -2 3 0
-1415 -1418 -6853 -2 1 0
-1415 -1419 -6853 -2 -3 1 0
-1416 -1418 -6853 -3 -2 1 0
-1416 -1419 -6853 -3 1 0
-1414 -1417 -6854 -1 2 0
-1414 -1419 -6854 -1 -3 2 0
-1416 -1417 -6854 -3 -1 2 0
-1416 -1419 -6854 -3 2 0
-1414 -1417 -6855 -1 3 0
-1414 -1418 -6855 -1 -2 3 0
-1415 -1417 -6855 -2 -1 3 0
-1415 -1418 -6855 -2 3 0
-1421 -1424 -6856 -2 1 0
-1421 -1425 -6856 -2 -3 1 0
-1422 -1424 -6856 -3 -2 1 0
-1422 -1425 -6856 -3 1 0
-1420 -1423 -6857 -1 2 0
-1420 -1425 -6857 -1 -3 2 0
-1422 -1423 -6857 -3 -1 2 0
-1422 -1425 -6857 -3 2 0
-1420 -1423 -6858 -1 3 0
-1420 -1424 -6858 -1 -2 3 0
-1421 -1423 -6858 -2 -1 3 0
-1421 -1424 -6858 -2 3 0
-1427 -1430 -6859 -2 1 0
-1427 -1431 -6859 -2 -3 1 0
-1428 -1430 -6859 -3 -2 1 0
-1428 -1431 -6859 -3 1 0
-1426 -1429 -6860 -1 2 0
-1426 -1431 -6860 -1 -3 2 0
-1428 -1429 -6860 -3 -1 2 0
-1428 -1431 -6860 -3 2 0
-1426 -1429 -6861 -1 3 0
-1426 -1430 -6861 -1 -2 3 0
-1427 -1429 -6861 -2 -1 3 0
-1427 -1430 -6861 -2 3 0
-1433 -1436 -6862 -2 1 0
-1433 -1437 -6862 -2 -3 1 0
-1434 -1436 -6862 -3 -2 1 0
-1434 -1437 -6862 -3 1 0
-1432 -1435 -6863 -1 2 0
-1432 -1437 -6863 -1 -3 2 0
-1434 -1435 -6863 -3 -1 2 0
-1434 -1437 -6863 -3 2 0
-1432 -1435 -6864 -1 3 0
-1432 -1436 -6864 -1 -2 3 0
-1433 -1435 -6864 -2 -1 3 0
-1433 -1436 -6864 -2 3 0
-1439 -1442 -6865 -2 1 0
-1439 -1443 -6865 -2 -3 1 0
-1440 -1442 -6865 -3 -2 1 0
-1440 -1443 -6865 -3 1 0
-1438 -1441 -6866 -1 2 0
-1438 -1443 -6866 -1 -3 2 0
-1440 -1441 -6866 -3 -1 2 0
-1440 -1443 -6866 -3 2 0
-1438 -1441 -6867 -1 3 0
-1438 -1442 -6867 -1 -2 3 0
-1439 -1441 -6867 -2 -1 3 0
-1439 -1442 -6867 -2 3 0
-1445 -1448 -6868 -2 1 0
-1445 -1449 -6868 -2 -3 1 0
-1446 -1448 -6868 -3 -2 1 0
-1446 -1449 -6868 -3 1 0
-1444 -1447 -6869 -1 2 0
-1444 -1449 -6869 -1 -3 2 0
-1446 -1447 -6869 -3 -1 2 0
-1446 -1449 -6869 -3 2 0
-1444 -1447 -6870 -1 3 0
-1444 -1448 -6870 -1 -2 3 0
-1445 -1447 -6870 -2 -1 3 0
-1445 -1448 -6870 -2 3 0
-1451 -1454 -6871 -2 1 0
-1451 -1455 -6871 -2 -3 1 0
-1452 -1454 -6871 -3 -2 1 0
-1452 -1455 -6871 -3 1 0
-1450 -1453 -6872 -1 2 0
-1450 -1455 -6872 -1 -3 2 0
-1452 -1453 -6872 -3 -1 2 0
-1452 -1455 -6872 -3 2 0
-1450 -1453 -6873 -1 3 0
-1450 -1454 -6873 -1 -2 3 0
-1451 -1453 -6873 -2 -1 3 0
-1451 -1454 -6873 -2 3 0
-1457 -1460 -6874 -2 1 0
-1457 -1461 -6874 -2 -3 1 0
-1458 -1460 -6874 -3 -2 1 0
-1458 -1461 -6874 -3 1 0
-1456 -1459 -6875 -1 2 0
-1456 -1461 -6875 -1 -3 2 0
-1458 -1459 -6875 -3 -1 2 0
-1458 -1461 -6875 -3 2 0
-1456 -1459 -6876 -1 3 0
-1456 -1460 -6876 -1 -2 3 0
-1457 -1459 -6876 -2 -1 3 0
-1457 -1460 -6876 -2 3 0
-1463 -1466 -6877 -2 1 0
-1463 -1467 -6877 -2 -3 1 0
-1464 -1466 -6877 -3 -2 1 0
-1464 -1467 -6877 -3 1 0
-1462 -1465 -6878 -1 2 0
-1462 -1467 -6878 -1 -3 2 0
-1464 -1465 -6878 -3 -1 2 0
-1464 -1467 -6878 -3 2 0
-1462 -1465 -6879 -1 3 0
-1462 -1466 -6879 -1 -2 3 0
-1463 -1465 -6879 -2 -1 3 0
-1463 -1466 -6879 -2 3 0
-1469 -1472 -6880 -2 1 0
-1469 -1473 -6880 -2 -3 1 0
-1470 -1472 -6880 -3 -2 1 0
-1470 -1473 -6880 -3 1 0
-1468 -1471 -6881 -1 2 0
-1468 -1473 -6881 -1 -3 2 0
-1470 -1471 -6881 -3 -1 2 0
-1470 -1473 -6881 -3 2 0
-1468 -1471 -6882 -1 3 0
-1468 -1472 -6882 -1 -2 3 0
-1469 -1471 -6882 -2 -1 3 0
-1469 -1472 -6882 -2 3 0
-1475 -1478 -6883 -2 1 0
-1475 -1479 -6883 -2 -3 1 0
-1476 -1478 -6883 -3 -2 1 0
-1476 -1479 -6883 -3 1 0
-1474 -1477 -6884 -1 2 0
-1474 -1479 -6884 -1 -3 2 0
-1476 -1477 -6884 -3 -1 2 0
-1476 -1479 -6884 -3 2 0
-1474 -1477 -6885 -1 3 0
-1474 -1478 -6885 -1 -2 3 0
-1475 -1477 -6885 -2 -1 3 0
-1475 -1478 -6885 -2 3 0
-1481 -1484 -6886 -2 1 0
-1481 -1485 -6886 -2 -3 1 0
-1482 -1484 -6886 -3 -2 1 0
-1482 -1485 -6886 -3 1 0
-1480 -1483 -6887 -1 2 0
-1480 -1485 -6887 -1 -3 2 0
-1482 -1483 -6887 -3 -1 2 0
-1482 -1485 -6887 -3 2 0
-1480 -1483 -6888 -1 3 0
-1480 -1484 -6888 -1 -2 3 0
-1481 -1483 -6888 -2 -1 3 0
-1481 -1484 -6888 -2 3 0
-1487 -1490 -6889 -2 1 0
-1487 -1491 -6889 -2 -3 1 0
-1488 -1490 -6889 -3 -2 1 0
-1488 -1491 -6889 -3 1 0
-1486 -1489 -6890 -1 2 0
-1486 -1491 -6890 -1 -3 2 0
-1488 -1489 -6890 -3 -1 2 0
-1488 -1491 -6890 -3 2 0
-1486 -1489 -6891 -1 3 0
-1486 -1490 -6891 -1 -2 3 0
-1487 -1489 -6891 -2 -1 3 0
-1487 -1490 -6891 -2 3 0
-1493 -1496 -6892 -2 1 0
-1493 -1497 -6892 -2 -3 1 0
-1494 -1496 -6892 -3 -2 1 0
-1494 -1497 -6892 -3 1 0
-1492 -1495 -6893 -1 2 0
-1492 -1497 -6893 -1 -3 2 0
-1494 -1495 -6893 -3 -1 2 0
-1494 -1497 -6893 -3 2 0
-1492 -1495 -6894 -1 3 0
-1492 -1496 -6894 -1 -2 3 0
-1493 -1495 -6894 -2 -1 3 0
-1493 -1496 -6894 -2 3 0
-1499 -1502 -6895 -2 1 0
-1499 -1503 -6895 -2 -3 1 0
-1500 -1502 -6895 -3 -2 1 0
-1500 -1503 -6895 -3 1 0
-1498 -1501 -6896 -1 2 0
-1498 -1503 -6896 -1 -3 2 0
-1500 -1501 -6896 -3 -1 2 0
-1500 -1503 -6896 -3 2 0
-1498 -1501 -6897 -1 3 0
-1498 -1502 -6897 -1 -2 3 0
-1499 -1501 -6897 -2 -1 3 0
-1499 -1502 -6897 -2 3 0
-1505 -1508 -6898 -2 1 0
-1505 -1509 -6898 -2 -3 1 0
-1506 -1508 -6898 -3 -2 1 0
-1506 -1509 -6898 -3 1 0
-1504 -1507 -6899 -1 2 0
-1504 -1509 -6899 -1 -3 2 0
-1506 -1507 -6899 -3 -1 2 0
-1506 -1509 -6899 -3 2 0
-1504 -1507 -6900 -1 3 0
-1504 -1508 -6900 -1 -2 3 0
-1505 -1507 -6900 -2 -1 3 0
-1505 -1508 -6900 -2 3 0
-1511 -1514 -6901 -2 1 0
-1511 -1515 -6901 -2 -3 1 0
-1512 -1514 -6901 -3 -2 1 0
-1512 -1515 -6901 -3 1 0
-1510 -1513 -6902 -1 2 0
-1510 -1515 -6902 -1 -3 2 0
-1512 -1513 -6902 -3 -1 2 0
-1512 -1515 -6902 -3 2 0
-1510 -1513 -6903 -1 3 0
-1510 -1514 -6903 -1 -2 3 0
-1511 -1513 -6903 -2 -1 3 0
-1511 -1514 -6903 -2 3 0
-1517 -1520 -6904 -2 1 0
-1517 -1521 -6904 -2 -3 1 0
-1518 -1520 -6904 -3 -2 1 0
-1518 -1521 -6904 -3 1 0
-1516 -1519 -6905 -1 2 0
-1516 -1521 -6905 -1 -3 2 0
-1518 -1519 -6905 -3 -1 2 0
-1518 -1521 -6905 -3 2 0
-1516 -1519 -6906 -1 3 0
-1516 -1520 -6906 -1 -2 3 0
-1517 -1519 -6906 -2 -1 3 0
-1517 -1520 -6906 -2 3 0
-1523 -1526 -6907 -2 1 0
-1523 -1527 -6907 -2 -3 1 0
-1524 -1526 -6907 -3 -2 1 0
-1524 -1527 -6907 -3 1 0
-1522 -1525 -6908 -1 2 0
-1522 -1527 -6908 -1 -3 2 0
-1524 -1525 -6908 -3 -1 2 0
-1524 -1527 -6908 -3 2 0
-1522 -1525 -6909 -1 3 0
-1522 -1526 -6909 -1 -2 3 0
-1523 -1525 -6909 -2 -1 3 0
-1523 -1526 -6909 -2 3 0
-1529 -1532 -6910 -2 1 0
-1529 -1533 -6910 -2 -3 1 0
-1530 -1532 -6910 -3 -2 1 0
-1530 -1533 -6910 -3 1 0
-1528 -1531 -6911 -1 2 0
-1528 -1533 -6911 -1 -3 2 0
-1530 -1531 -6911 -3 -1 2 0
-1530 -1533 -6911 -3 2 0
-1528 -1531 -6912 -1 3 0
-1528 -1532 -6912 -1 -2 3 0
-1529 -1531 -6912 -2 -1 3 0
-1529 -1532 -6912 -2 3 0
-1535 -1538 -6913 -2 1 0
-1535 -1539 -6913 -2 -3 1 0
-1536 -1538 -6913 -3 -2 1 0
-1536 -1539 -6913 -3 1 0
-1534 -1537 -6914 -1 2 0
-1534 -1539 -6914 -1 -3 2 0
-1536 -1537 -6914 -3 -1 2 0
-1536 -1539 -6914 -3 2 0
-1534 -1537 -6915 -1 3 0
-1534 -1538 -6915 -1 -2 3 0
-1535 -1537 -6915 -2 -1 3 0
-1535 -1538 -6915 -2 3 0
-1541 -1544 -6916 -2 1 0
-1541 -1545 -6916 -2 -3 1 0
-1542 -1544 -6916 -3 -2 1 0
-1542 -1545 -6916 -3 1 0
-1540 -1543 -6917 -1 2 0
-1540 -1545 -6917 -1 -3 2 0
-1542 -1543 -6917 -3 -1 2 0
-1542 -1545 -6917 -3 2 0
-1540 -1543 -6918 -1 3 0
-1540 -1544 -6918 -1 -2 3 0
-1541 -1543 -6918 -2 -1 3 0
-1541 -1544 -6918 -2 3 0
-1547 -1550 -6919 -2 1 0
-1547 -1551 -6919 -2 -3 1 0
-1548 -1550 -6919 -3 -2 1 0
-1548 -1551 -6919 -3 1 0
-1546 -1549 -6920 -1 2 0
-1546 -1551 -6920 -1 -3 2 0
-1548 -1549 -6920 -3 -1 2 0
-1548 -1551 -6920 -3 2 0
-1546 -1549 -6921 -1 3 0
-1546 -1550 -6921 -1 -2 3 0
-1547 -1549 -6921 -2 -1 3 0
-1547 -1550 -6921 -2 3 0
-1553 -1556 -6922 -2 1 0
-1553 -1557 -6922 -2 -3 1 0
-1554 -1556 -6922 -3 -2 1 0
-1554 -1557 -6922 -3 1 0
-1552 -1555 -6923 -1 2 0
-1552 -1557 -6923 -1 -3 2 0
-1554 -1555 -6923 -3 -1 2 0
-1554 -1557 -6923 -3 2 0
-1552 -1555 -6924 -1 3 0
-1552 -1556 -6924 -1 -2 3 0
-1553 -1555 -6924 -2 -1 3 0
-1553 -1556 -6924 -2 3 0
-1559 -1562 -6925 -2 1 0
-1559 -1563 -6925 -2 -3 1 0
-1560 -1562 -6925 -3 -2 1 0
-1560 -1563 -6925 -3 1 0
-1558 -1561 -6926 -1 2 0
-1558 -1563 -6926 -1 -3 2 0
-1560 -1561 -6926 -3 -1 2 0
-1560 -1563 -6926 -3 2 0
-1558 -1561 -6927 -1 3 0
-1558 -1562 -6927 -1 -2 3 0
-1559 -1561 -6927 -2 -1 3 0
-1559 -1562 -6927 -2 3 0
-1565 -1568 -6928 -2 1 0
-1565 -1569 -6928 -2 -3 1 0
-1566 -1568 -6928 -3 -2 1 0
-1566 -1569 -6928 -3 1 0
-1564 -1567 -6929 -1 2 0
-1564 -1569 -6929 -1 -3 2 0
-1566 -1567 -6929 -3 -1 2 0
-1566 -1569 -6929 -3 2 0
-1564 -1567 -6930 -1 3 0
-1564 -1568 -6930 -1 -2 3 0
-1565 -1567 -6930 -2 -1 3 0
-1565 -1568 -6930 -2 3 0
-1571 -1574 -6931 -2 1 0
-1571 -1575 -6931 -2 -3 1 0
-1572 -1574 -6931 -3 -2 1 0
-1572 -1575 -6931 -3 1 0
-1570 -1573 -6932 -1 2 0
-1570 -1575 -6932 -1 -3 2 0
-1572 -1573 -6932 -3 -1 2 0
-1572 -1575 -6932 -3 2 0
-1570 -1573 -6933 -1 3 0
-1570 -1574 -6933 -1 -2 3 0
-1571 -1573 -6933 -2 -1 3 0
-1571 -1574 -6933 -2 3 0
-1577 -1580 -6934 -2 1 0
-1577 -1581 -6934 -2 -3 1 0
-1578 -1580 -6934 -3 -2 1 0
-1578 -1581 -6934 -3 1 0
-1576 -1579 -6935 -1 2 0
-1576 -1581 -6935 -1 -3 2 0
-1578 -1579 -6935 -3 -1 2 0
-1578 -1581 -6935 -3 2 0
-1576 -1579 -6936 -1 3 0
-1576 -1580 -6936 -1 -2 3 0
-1577 -1579 -6936 -2 -1 3 0
-1577 -1580 -6936 -2 3 0
-1583 -1586 -6937 -2 1 0
-1583 -1587 -6937 -2 -3 1 0
-1584 -1586 -6937 -3 -2 1 0
-1584 -1587 -6937 -3 1 0
-1582 -1585 -6938 -1 2 0
-1582 -1587 -6938 -1 -3 2 0
-1584 -1585 -6938 -3 -1 2 0
-1584 -1587 -6938 -3 2 0
-1582 -1585 -6939 -1 3 0
-1582 -1586 -6939 -1 -2 3 0
-1583 -1585 -6939 -2 -1 3 0
-1583 -1586 -6939 -2 3 0
-1589 -1592 -6940 -2 1 0
-1589 -1593 -6940 -2 -3 1 0
-1590 -1592 -6940 -3 -2 1 0
-1590 -1593 -6940 -3 1 0
-1588 -1591 -6941 -1 2 0
-1588 -1593 -6941 -1 -3 2 0
-1590 -1591 -6941 -3 -1 2 0
-1590 -1593 -6941 -3 2 0
-1588 -1591 -6942 -1 3 0
-1588 -1592 -6942 -1 -2 3 0
-1589 -1591 -6942 -2 -1 3 0
-1589 -1592 -6942 -2 3 0
-1595 -1598 -6943 -2 1 0
-1595 -1599 -6943 -2 -3 1 0
-1596 -1598 -6943 -3 -2 1 0
-1596 -1599 -6943 -3 1 0
-1594 -1597 -6944 -1 2 0
-1594 -1599 -6944 -1 -3 2 0
-1596 -1597 -6944 -3 -1 2 0
-1596 -1599 -6944 -3 2 0
-1594 -1597 -6945 -1 3 0
-1594 -1598 -6945 -1 -2 3 0
-1595 -1597 -6945 -2 -1 3 0
-1595 -1598 -6945 -2 3 0
-1601 -1604 -6946 -2 1 0
-1601 -1605 -6946 -2 -3 1 0
-1602 -1604 -6946 -3 -2 1 0
-1602 -1605 -6946 -3 1 0
-1600 -1603 -6947 -1 2 0
-1600 -1605 -6947 -1 -3 2 0
-1602 -1603 -6947 -3 -1 2 0
-1602 -1605 -6947 -3 2 0
-1600 -1603 -6948 -1 3 0
-1600 -1604 -6948 -1 -2 3 0
-1601 -1603 -6948 -2 -1 3 0
-1601 -1604 -6948 -2 3 0
-1607 -1610 -6949 -2 1 0
-1607 -1611 -6949 -2 -3 1 0
-1608 -1610 -6949 -3 -2 1 0
-1608 -1611 -6949 -3 1 0
-1606 -1609 -6950 -1 2 0
-1606 -1611 -6950 -1 -3 2 0
-1608 -1609 -6950 -3 -1 2 0
-1608 -1611 -6950 -3 2 0
-1606 -1609 -6951 -1 3 0
-1606 -1610 -6951 -1 -2 3 0
-1607 -1609 -6951 -2 -1 3 0
-1607 -1610 -6951 -2 3 0
-1613 -1616 -6952 -2 1 0
-1613 -1617 -6952 -2 -3 1 0
-1614 -1616 -6952 -3 -2 1 0
-1614 -1617 -6952 -3 1 0
-1612 -1615 -6953 -1 2 0
-1612 -1617 -6953 -1 -3 2 0
-1614 -1615 -6953 -3 -1 2 0
-1614 -1617 -6953 -3 2 0
-1612 -1615 -6954 -1 3 0
-1612 -1616 -6954 -1 -2 3 0
-1613 -1615 -6954 -2 -1 3 0
-1613 -1616 -6954 -2 3 0
-1619 -1622 -6955 -2 1 0
-1619 -1623 -6955 -2 -3 1 0
-1620 -1622 -6955 -3 -2 1 0
-1620 -1623 -6955 -3 1 0
-1618 -1621 -6956 -1 2 0
-1618 -1623 -6956 -1 -3 2 0
-1620 -1621 -6956 -3 -1 2 0
-1620 -1623 -6956 -3 2 0
-1618 -1621 -6957 -1 3 0
-1618 -1622 -6957 -1 -2 3 0
-1619 -1621 -6957 -2 -1 3 0
-1619 -1622 -6957 -2 3 0
-1625 -1628 -6958 -2 1 0
-1625 -1629 -6958 -2 -3 1 0
-1626 -1628 -6958 -3 -2 1 0
-1626 -1629 -6958 -3 1 0
-1624 -1627 -6959 -1 2 0
-1624 -1629 -6959 -1 -3 2 0
-1626 -1627 -6959 -3 -1 2 0
-1626 -1629 -6959 -3 2 0
-1624 -1627 -6960 -1 3 0
-1624 -1628 -6960 -1 -2 3 0
-1625 -1627 -6960 -2 -1 3 0
-1625 -1628 -6960 -2 3 0
-1631 -1634 -6961 -2 1 0
-1631 -1635 -6961 -2 -3 1 0
-1632 -1634 -6961 -3 -2 1 0
-1632 -1635 -6961 -3 1 0
-1630 -1633 -6962 -1 2 0
-1630 -1635 -6962 -1 -3 2 0
-1632 -1633 -6962 -3 -1 2 0
-1632 -1635 -6962 -3 2 0
-1630 -1633 -6963 -1 3 0
-1630 -1634 -6963 -1 -2 3 0
-1631 -1633 -6963 -2 -1 3 0
-1631 -1634 -6963 -2 3 0
-1637 -1640 -6964 -2 1 0
-1637 -1641 -6964 -2 -3 1 0
-1638 -1640 -6964 -3 -2 1 0
-1638 -1641 -6964 -3 1 0
-1636 -1639 -6965 -1 2 0
-1636 -1641 -6965 -1 -3 2 0
-1638 -1639 -6965 -3 -1 2 0
-1638 -1641 -6965 -3 2 0
-1636 -1639 -6966 -1 3 0
-1636 -1640 -6966 -1 -2 3 0
-1637 -1639 -6966 -2 -1 3 0
-1637 -1640 -6966 -2 3 0
-1643 -1646 -6967 -2 1 0
-1643 -1647 -6967 -2 -3 1 0
-1644 -1646 -6967 -3 -2 1 0
-1644 -1647 -6967 -3 1 0
-1642 -1645 -6968 -1 2 0
-1642 -1647 -6968 -1 -3 2 0
-1644 -1645 -6968 -3 -1 2 0
-1644 -1647 -6968 -3 2 0
-1642 -1645 -6969 -1 3 0
-1642 -1646 -6969 -1 -2 3 0
-1643 -1645 -6969 -2 -1 3 0
-1643 -1646 -6969 -2 3 0
-1649 -1652 -6970 -2 1 0
-1649 -1653 -6970 -2 -3 1 0
-1650 -1652 -6970 -3 -2 1 0
-1650 -1653 -6970 -3 1 0
-1648 -1651 -6971 -1 2 0
-1648 -1653 -6971 -1 -3 2 0
-1650 -1651 -6971 -3 -1 2 0
-1650 -1653 -6971 -3 2 0
-1648 -1651 -6972 -1 3 0
-1648 -1652 -6972 -1 -2 3 0
-1649 -1651 -6972 -2 -1 3 0
-1649 -1652 -6972 -2 3 0
-1655 -1658 -6973 -2 1 0
-1655 -1659 -6973 -2 -3 1 0
-1656 -1658 -6973 -3 -2 1 0
-1656 -1659 -6973 -3 1 0
-1654 -1657 -6974 -1 2 0
-1654 -1659 -6974 -1 -3 2 0
-1656 -1657 -6974 -3 -1 2 0
-1656 -1659 -6974 -3 2 0
-1654 -1657 -6975 -1 3 0
-1654 -1658 -6975 -1 -2 3 0
-1655 -1657 -6975 -2 -1 3 0
-1655 -1658 -6975 -2 3 0
-1661 -1664 -6976 -2 1 0
-1661 -1665 -6976 -2 -3 1 0
-1662 -1664 -6976 -3 -2 1 0
-1662 -1665 -6976 -3 1 0
-1660 -1663 -6977 -1 2 0
-1660 -1665 -6977 -1 -3 2 0
-1662 -1663 -6977 -3 -1 2 0
-1662 -1665 -6977 -3 2 0
-1660 -1663 -6978 -1 3 0
-1660 -1664 -6978 -1 -2 3 0
-1661 -1663 -6978 -2 -1 3 0
-1661 -1664 -6978 -2 3 0
-1667 -1670 -6979 -2 1 0
-1667 -1671 -6979 -2 -3 1 0
-1668 -1670 -6979 -3 -2 1 0
-1668 -1671 -6979 -3 1 0
-1666 -1669 -6980 -1 2 0
-1666 -1671 -6980 -1 -3 2 0
-1668 -1669 -6980 -3 -1 2 0
-1668 -1671 -6980 -3 2 0
-1666 -1669 -6981 -1 3 0
-1666 -1670 -6981 -1 -2 3 0
-1667 -1669 -6981 -2 -1 3 0
-1667 -1670 -6981 -2 3 0
-1673 -1676 -6982 -2 1 0
-1673 -1677 -6982 -2 -3 1 0
-1674 -1676 -6982 -3 -2 1 0
-1674 -1677 -6982 -3 1 0
-1672 -1675 -6983 -1 2 0
-1672 -1677 -6983 -1 -3 2 0
-1674 -1675 -6983 -3 -1 2 0
-1674 -1677 -6983 -3 2 0
-1672 -1675 -6984 -1 3 0
-1672 -1676 -6984 -1 -2 3 0
-1673 -1675 -6984 -2 -1 3 0
-1673 -1676 -6984 -2 3 0
-1679 -1682 -6985 -2 1 0
-1679 -1683 -6985 -2 -3 1 0
-1680 -1682 -6985 -3 -2 1 0
-1680 -1683 -6985 -3 1 0
-1678 -1681 -6986 -1 2 0
-1678 -1683 -6986 -1 -3 2 0
-1680 -1681 -6986 -3 -1 2 0
-1680 -1683 -6986 -3 2 0
-1678 -1681 -6987 -1 3 0
-1678 -1682 -6987 -1 -2 3 0
-1679 -1681 -6987 -2 -1 3 0
-1679 -1682 -6987 -2 3 0
-1685 -1688 -6988 -2 1 0
-1685 -1689 -6988 -2 -3 1 0
-1686 -1688 -6988 -3 -2 1 0
-1686 -1689 -6988 -3 1 0
-1684 -1687 -6989 -1 2 0
-1684 -1689 -6989 -1 -3 2 0
-1686 -1687 -6989 -3 -1 2 0
-1686 -1689 -6989 -3 2 0
-1684 -1687 -6990 -1 3 0
-1684 -1688 -6990 -1 -2 3 0
-1685 -1687 -6990 -2 -1 3 0
-1685 -1688 -6990 -2 3 0
-1691 -1694 -6991 -2 1 0
-1691 -1695 -6991 -2 -3 1 0
-1692 -1694 -6991 -3 -2 1 0
-1692 -1695 -6991 -3 1 0
-1690 -1693 -6992 -1 2 0
-1690 -1695 -6992 -1 -3 2 0
-1692 -1693 -6992 -3 -1 2 0
-1692 -1695 -6992 -3 2 0
-1690 -1693 -6993 -1 3 0
-1690 -1694 -6993 -1 -2 3 0
-1691 -1693 -6993 -2 -1 3 0
-1691 -1694 -6993 -2 3 0
-1697 -1700 -6994 -2 1 0
-1697 -1701 -6994 -2 -3 1 0
-1698 -1700 -6994 -3 -2 1 0
-1698 -1701 -6994 -3 1 0
-1696 -1699 -6995 -1 2 0
-1696 -1701 -6995 -1 -3 2 0
-1698 -1699 -6995 -3 -1 2 0
-1698 -1701 -6995 -3 2 0
-1696 -1699 -6996 -1 3 0
-1696 -1700 -6996 -1 -2 3 0
-1697 -1699 -6996 -2 -1 3 0
-1697 -1700 -6996 -2 3 0
-1703 -1706 -6997 -2 1 0
-1703 -1707 -6997 -2 -3 1 0
-1704 -1706 -6997 -3 -2 1 0
-1704 -1707 -6997 -3 1 0
-1702 -1705 -6998 -1 2 0
-1702 -1707 -6998 -1 -3 2 0
-1704 -1705 -6998 -3 -1 2 0
-1704 -1707 -6998 -3 2 0
-1702 -1705 -6999 -1 3 0
-1702 -1706 -6999 -1 -2 3 0
-1703 -1705 -6999 -2 -1 3 0
-1703 -1706 -6999 -2 3 0
-1709 -1712 -7000 -2 1 0
-1709 -1713 -7000 -2 -3 1 0
-1710 -1712 -7000 -3 -2 1 0
-1710 -1713 -7000 -3 1 0
-1708 -1711 -7001 -1 2 0
-1708 -1713 -7001 -1 -3 2 0
-1710 -1711 -7001 -3 -1 2 0
-1710 -1713 -7001 -3 2 0
-1708 -1711 -7002 -1 3 0
-1708 -1712 -7002 -1 -2 3 0
-1709 -1711 -7002 -2 -1 3 0
-1709 -1712 -7002 -2 3 0
-1715 -1718 -7003 -2 1 0
-1715 -1719 -7003 -2 -3 1 0
-1716 -1718 -7003 -3 -2 1 0
-1716 -1719 -7003 -3 1 0
-1714 -1717 -7004 -1 2 0
-1714 -1719 -7004 -1 -3 2 0
-1716 -1717 -7004 -3 -1 2 0
-1716 -1719 -7004 -3 2 0
-1714 -1717 -7005 -1 3 0
-1714 -1718 -7005 -1 -2 3 0
-1715 -1717 -7005 -2 -1 3 0
-1715 -1718 -7005 -2 3 0
-1721 -1724 -7006 -2 1 0
-1721 -1725 -7006 -2 -3 1 0
-1722 -1724 -7006 -3 -2 1 0
-1722 -1725 -7006 -3 1 0
-1720 -1723 -7007 -1 2 0
-1720 -1725 -7007 -1 -3 2 0
-1722 -1723 -7007 -3 -1 2 0
-1722 -1725 -7007 -3 2 0
-1720 -1723 -7008 -1 3 0
-1720 -1724 -7008 -1 -2 3 0
-1721 -1723 -7008 -2 -1 3 0
-1721 -1724 -7008 -2 3 0
-1727 -1730 -7009 -2 1 0
-1727 -1731 -7009 -2 -3 1 0
-1728 -1730 -7009 -3 -2 1 0
-1728 -1731 -7009 -3 1 0
-1726 -1729 -7010 -1 2 0
-1726 -1731 -7010 -1 -3 2 0
-1728 -1729 -7010 -3 -1 2 0
-1728 -1731 -7010 -3 2 0
-1726 -1729 -7011 -1 3 0
-1726 -1730 -7011 -1 -2 3 0
-1727 -1729 -7011 -2 -1 3 0
-1727 -1730 -7011 -2 3 0
-1733 -1736 -7012 -2 1 0
-1733 -1737 -7012 -2 -3 1 0
-1734 -1736 -7012 -3 -2 1 0
-1734 -1737 -7012 -3 1 0
-1732 -1735 -7013 -1 2 0
-1732 -1737 -7013 -1 -3 2 0
-1734 -1735 -7013 -3 -1 2 0
-1734 -1737 -7013 -3 2 0
-1732 -1735 -7014 -1 3 0
-1732 -1736 -7014 -1 -2 3 0
-1733 -1735 -7014 -2 -1 3 0
-1733 -1736 -7014 -2 3 0
-1739 -1742 -7015 -2 1 0
-1739 -1743 -7015 -2 -3 1 0
-1740 -1742 -7015 -3 -2 1 0
-1740 -1743 -7015 -3 1 0
-1738 -1741 -7016 -1 2 0
-1738 -1743 -7016 -1 -3 2 0
-1740 -1741 -7016 -3 -1 2 0
-1740 -1743 -7016 -3 2 0
-1738 -1741 -7017 -1 3 0
-1738 -1742 -7017 -1 -2 3 0
-1739 -1741 -7017 -2 -1 3 0
-1739 -1742 -7017 -2 3 0
-1745 -1748 -7018 -2 1 0
-1745 -1749 -7018 -2 -3 1 0
-1746 -1748 -7018 -3 -2 1 0
-1746 -1749 -7018 -3 1 0
-1744 -1747 -7019 -1 2 0
-1744 -1749 -7019 -1 -3 2 0
-1746 -1747 -7019 -3 -1 2 0
-1746 -1749 -7019 -3 2 0
-1744 -1747 -7020 -1 3 0
-1744 -1748 -7020 -1 -2 3 0
-1745 -1747 -7020 -2 -1 3 0
-1745 -1748 -7020 -2 3 0
-1751 -1754 -7021 -2 1 0
-1751 -1755 -7021 -2 -3 1 0
-1752 -1754 -7021 -3 -2 1 0
-1752 -1755 -7021 -3 1 0
-1750 -1753 -7022 -1 2 0
-1750 -1755 -7022 -1 -3 2 0
-1752 -1753 -7022 -3 -1 2 0
-1752 -1755 -7022 -3 2 0
-1750 -1753 -7023 -1 3 0
-1750 -1754 -7023 -1 -2 3 0
-1751 -1753 -7023 -2 -1 3 0
-1751 -1754 -7023 -2 3 0
-1757 -1760 -7024 -2 1 0
-1757 -1761 -7024 -2 -3 1 0
-1758 -1760 -7024 -3 -2 1 0
-1758 -1761 -7024 -3 1 0
-1756 -1759 -7025 -1 2 0
-1756 -1761 -7025 -1 -3 2 0
-1758 -1759 -7025 -3 -1 2 0
-1758 -1761 -7025 -3 2 0
-1756 -1759 -7026 -1 3 0
-1756 -1760 -7026 -1 -2 3 0
-1757 -1759 -7026 -2 -1 3 0
-1757 -1760 -7026 -2 3 0
-1763 -1766 -7027 -2 1 0
-1763 -1767 -7027 -2 -3 1 0
-1764 -1766 -7027 -3 -2 1 0
-1764 -1767 -7027 -3 1 0
-1762 -1765 -7028 -1 2 0
-1762 -1767 -7028 -1 -3 2 0
-1764 -1765 -7028 -3 -1 2 0
-1764 -1767 -7028 -3 2 0
-1762 -1765 -7029 -1 3 0
-1762 -1766 -7029 -1 -2 3 0
-1763 -1765 -7029 -2 -1 3 0
-1763 -1766 -7029 -2 3 0
-1769 -1772 -7030 -2 1 0
-1769 -1773 -7030 -2 -3 1 0
-1770 -1772 -7030 -3 -2 1 0
-1770 -1773 -7030 -3 1 0
-1768 -1771 -7031 -1 2 0
-1768 -1773 -7031 -1 -3 2 0
-1770 -1771 -7031 -3 -1 2 0
-1770 -1773 -7031 -3 2 0
-1768 -1771 -7032 -1 3 0
-1768 -1772 -7032 -1 -2 3 0
-1769 -1771 -7032 -2 -1 3 0
-1769 -1772 -7032 -2 3 0
-1775 -1778 -7033 -2 1 0
-1775 -1779 -7033 -2 -3 1 0
-1776 -1778 -7033 -3 -2 1 0
-1776 -1779 -7033 -3 1 0
-1774 -1777 -7034 -1 2 0
-1774 -1779 -7034 -1 -3 2 0
-1776 -1777 -7034 -3 -1 2 0
-1776 -1779 -7034 -3 2 0
-1774 -1777 -7035 -1 3 0
-1774 -1778 -7035 -1 -2 3 0
-1775 -1777 -7035 -2 -1 3 0
-1775 -1778 -7035 -2 3 0
-1781 -1784 -7036 -2 1 0
-1781 -1785 -7036 -2 -3 1 0
-1782 -1784 -7036 -3 -2 1 0
-1782 -1785 -7036 -3 1 0
-1780 -1783 -7037 -1 2 0
-1780 -1785 -7037 -1 -3 2 0
-1782 -1783 -7037 -3 -1 2 0
-1782 -1785 -7037 -3 2 0
-1780 -1783 -7038 -1 3 0
-1780 -1784 -7038 -1 -2 3 0
-1781 -1783 -7038 -2 -1 3 0
-1781 -1784 -7038 -2 3 0
-1787 -1790 -7039 -2 1 0
-1787 -1791 -7039 -2 -3 1 0
-1788 -1790 -7039 -3 -2 1 0
-1788 -1791 -7039 -3 1 0
-1786 -1789 -7040 -1 2 0
-1786 -1791 -7040 -1 -3 2 0
-1788 -1789 -7040 -3 -1 2 0
-1788 -1791 -7040 -3 2 0
-1786 -1789 -7041 -1 3 0
-1786 -1790 -7041 -1 -2 3 0
-1787 -1789 -7041 -2 -1 3 0
-1787 -1790 -7041 -2 3 0
-1793 -1796 -7042 -2 1 0
-1793 -1797 -7042 -2 -3 1 0
-1794 -1796 -7042 -3 -2 1 0
-1794 -1797 -7042 -3 1 0
-1792 -1795 -7043 -1 2 0
-1792 -1797 -7043 -1 -3 2 0
-1794 -1795 -7043 -3 -1 2 0
-1794 -1797 -7043 -3 2 0
-1792 -1795 -7044 -1 3 0
-1792 -1796 -7044 -1 -2 3 0
-1793 -1795 -7044 -2 -1 3 0
-1793 -1796 -7044 -2 3 0
-1799 -1802 -7045 -2 1 0
-1799 -1803 -7045 -2 -3 1 0
-1800 -1802 -7045 -3 -2 1 0
-1800 -1803 -7045 -3 1 0
-1798 -1801 -7046 -1 2 0
-1798 -1803 -7046 -1 -3 2 0
-1800 -1801 -7046 -3 -1 2 0
-1800 -1803 -7046 -3 2 0
-1798 -1801 -7047 -1 3 0
-1798 -1802 -7047 -1 -2 3 0
-1799 -1801 -7047 -2 -1 3 0
-1799 -1802 -7047 -2 3 0
-1805 -1808 -7048 -2 1 0
-1805 -1809 -7048 -2 -3 1 0
-1806 -1808 -7048 -3 -2 1 0
-1806 -1809 -7048 -3 1 0
-1804 -1807 -7049 -1 2 0
-1804 -1809 -7049 -1 -3 2 0
-1806 -1807 -7049 -3 -1 2 0
-1806 -1809 -7049 -3 2 0
-1804 -1807 -7050 -1 3 0
-1804 -1808 -7050 -1 -2 3 0
-1805 -1807 -7050 -2 -1 3 0
-1805 -1808 -7050 -2 3 0
-1811 -1814 -7051 -2 1 0
-1811 -1815 -7051 -2 -3 1 0
-1812 -1814 -7051 -3 -2 1 0
-1812 -1815 -7051 -3 1 0
-1810 -1813 -7052 -1 2 0
-1810 -1815 -7052 -1 -3 2 0
-1812 -1813 -7052 -3 -1 2 0
-1812 -1815 -7052 -3 2 0
-1810 -1813 -7053 -1 3 0
-1810 -1814 -7053 -1 -2 3 0
-1811 -1813 -7053 -2 -1 3 0
-1811 -1814 -7053 -2 3 0
-1817 -1820 -7054 -2 1 0
-1817 -1821 -7054 -2 -3 1 0
-1818 -1820 -7054 -3 -2 1 0
-1818 -1821 -7054 -3 1 0
-1816 -1819 -7055 -1 2 0
-1816 -1821 -7055 -1 -3 2 0
-1818 -1819 -7055 -3 -1 2 0
-1818 -1821 -7055 -3 2 0
-1816 -1819 -7056 -1 3 0
-1816 -1820 -7056 -1 -2 3 0
-1817 -1819 -7056 -2 -1 3 0
-1817 -1820 -7056 -2 3 0
-1823 -1826 -7057 -2 1 0
-1823 -1827 -7057 -2 -3 1 0
-1824 -1826 -7057 -3 -2 1 0
-1824 -1827 -7057 -3 1 0
-1822 -1825 -7058 -1 2 0
-1822 -1827 -7058 -1 -3 2 0
-1824 -1825 -7058 -3 -1 2 0
-1824 -1827 -7058 -3 2 0
-1822 -1825 -7059 -1 3 0
-1822 -1826 -7059 -1 -2 3 0
-1823 -1825 -7059 -2 -1 3 0
-1823 -1826 -7059 -2 3 0
-1829 -1832 -7060 -2 1 0
-1829 -1833 -7060 -2 -3 1 0
-1830 -1832 -7060 -3 -2 1 0
-1830 -1833 -7060 -3 1 0
-1828 -1831 -7061 -1 2 0
-1828 -1833 -7061 -1 -3 2 0
-1830 -1831 -7061 -3 -1 2 0
-1830 -1833 -7061 -3 2 0
-1828 -1831 -7062 -1 3 0
-1828 -1832 -7062 -1 -2 3 0
-1829 -1831 -7062 -2 -1 3 0
-1829 -1832 -7062 -2 3 0
-1835 -1838 -7063 -2 1 0
-1835 -1839 -7063 -2 -3 1 0
-1836 -1838 -7063 -3 -2 1 0
-1836 -1839 -7063 -3 1 0
-1834 -1837 -7064 -1 2 0
-1834 -1839 -7064 -1 -3 2 0
-1836 -1837 -7064 -3 -1 2 0
-1836 -1839 -7064 -3 2 0
-1834 -1837 -7065 -1 3 0
-1834 -1838 -7065 -1 -2 3 0
-1835 -1837 -7065 -2 -1 3 0
-1835 -1838 -7065 -2 3 0
-1841 -1844 -7066 -2 1 0
-1841 -1845 -7066 -2 -3 1 0
-1842 -1844 -7066 -3 -2 1 0
-1842 -1845 -7066 -3 1 0
-1840 -1843 -7067 -1 2 0
-1840 -1845 -7067 -1 -3 2 0
-1842 -1843 -7067 -3 -1 2 0
-1842 -1845 -7067 -3 2 0
-1840 -1843 -7068 -1 3 0
-1840 -1844 -7068 -1 -2 3 0
-1841 -1843 -7068 -2 -1 3 0
-1841 -1844 -7068 -2 3 0
-1847 -1850 -7069 -2 1 0
-1847 -1851 -7069 -2 -3 1 0
-1848 -1850 -7069 -3 -2 1 0
-1848 -1851 -7069 -3 1 0
-1846 -1849 -7070 -1 2 0
-1846 -1851 -7070 -1 -3 2 0
-1848 -1849 -7070 -3 -1 2 0
-1848 -1851 -7070 -3 2 0
-1846 -1849 -7071 -1 3 0
-1846 -1850 -7071 -1 -2 3 0
-1847 -1849 -7071 -2 -1 3 0
-1847 -1850 -7071 -2 3 0
-1853 -1856 -7072 -2 1 0
-1853 -1857 -7072 -2 -3 1 0
-1854 -1856 -7072 -3 -2 1 0
-1854 -1857 -7072 -3 1 0
-1852 -1855 -7073 -1 2 0
-1852 -1857 -7073 -1 -3 2 0
-1854 -1855 -7073 -3 -1 2 0
-1854 -1857 -7073 -3 2 0
-1852 -1855 -7074 -1 3 0
-1852 -1856 -7074 -1 -2 3 0
-1853 -1855 -7074 -2 -1 3 0
-1853 -1856 -7074 -2 3 0
-1859 -1862 -7075 -2 1 0
-1859 -1863 -7075 -2 -3 1 0
-1860 -1862 -7075 -3 -2 1 0
-1860 -1863 -7075 -3 1 0
-1858 -1861 -7076 -1 2 0
-1858 -1863 -7076 -1 -3 2 0
-1860 -1861 -7076 -3 -1 2 0
-1860 -1863 -7076 -3 2 0
-1858 -1861 -7077 -1 3 0
-1858 -1862 -7077 -1 -2 3 0
-1859 -1861 -7077 -2 -1 3 0
-1859 -1862 -7077 -2 3 0
-1865 -1868 -7078 -2 1 0
-1865 -1869 -7078 -2 -3 1 0
-1866 -1868 -7078 -3 -2 1 0
-1866 -1869 -7078 -3 1 0
-1864 -1867 -7079 -1 2 0
-1864 -1869 -7079 -1 -3 2 0
-1866 -1867 -7079 -3 -1 2 0
-1866 -1869 -7079 -3 2 0
-1864 -1867 -7080 -1 3 0
-1864 -1868 -7080 -1 -2 3 0
-1865 -1867 -7080 -2 -1 3 0
-1865 -1868 -7080 -2 3 0
-1871 -1874 -7081 -2 1 0
-1871 -1875 -7081 -2 -3 1 0
-1872 -1874 -7081 -3 -2 1 0
-1872 -1875 -7081 -3 1 0
-1870 -1873 -7082 -1 2 0
-1870 -1875 -7082 -1 -3 2 0
-1872 -1873 -7082 -3 -1 2 0
-1872 -1875 -7082 -3 2 0
-1870 -1873 -7083 -1 3 0
-1870 -1874 -7083 -1 -2 3 0
-1871 -1873 -7083 -2 -1 3 0
-1871 -1874 -7083 -2 3 0
-1877 -1880 -7084 -2 1 0
-1877 -1881 -7084 -2 -3 1 0
-1878 -1880 -7084 -3 -2 1 0
-1878 -1881 -7084 -3 1 0
-1876 -1879 -7085 -1 2 0
-1876 -1881 -7085 -1 -3 2 0
-1878 -1879 -7085 -3 -1 2 0
-1878 -1881 -7085 -3 2 0
-1876 -1879 -7086 -1 3 0
-1876 -1880 -7086 -1 -2 3 0
-1877 -1879 -7086 -2 -1 3 0
-1877 -1880 -7086 -2 3 0
-1883 -1886 -7087 -2 1 0
-1883 -1887 -7087 -2 -3 1 0
-1884 -1886 -7087 -3 -2 1 0
-1884 -1887 -7087 -3 1 0
-1882 -1885 -7088 -1 2 0
-1882 -1887 -7088 -1 -3 2 0
-1884 -1885 -7088 -3 -1 2 0
-1884 -1887 -7088 -3 2 0
-1882 -1885 -7089 -1 3 0
-1882 -1886 -7089 -1 -2 3 0
-1883 -1885 -7089 -2 -1 3 0
-1883 -1886 -7089 -2 3 0
-1889 -1892 -7090 -2 1 0
-1889 -1893 -7090 -2 -3 1 0
-1890 -1892 -7090 -3 -2 1 0
-1890 -1893 -7090 -3 1 0
-1888 -1891 -7091 -1 2 0
-1888 -1893 -7091 -1 -3 2 0
-1890 -1891 -7091 -3 -1 2 0
-1890 -1893 -7091 -3 2 0
-1888 -1891 -7092 -1 3 0
-1888 -1892 -7092 -1 -2 3 0
-1889 -1891 -7092 -2 -1 3 0
-1889 -1892 -7092 -2 3 0
-1895 -1898 -7093 -2 1 0
-1895 -1899 -7093 -2 -3 1 0
-1896 -1898 -7093 -3 -2 1 0
-1896 -1899 -7093 -3 1 0
-1894 -1897 -7094 -1 2 0
-1894 -1899 -7094 -1 -3 2 0
-1896 -1897 -7094 -3 -1 2 0
-1896 -1899 -7094 -3 2 0
-1894 -1897 -7095 -1 3 0
-1894 -1898 -7095 -1 -2 3 0
-1895 -1897 -7095 -2 -1 3 0
-1895 -1898 -7095 -2 3 0
-1901 -1904 -7096 -2 1 0
-1901 -1905 -7096 -2 -3 1 0
-1902 -1904 -7096 -3 -2 1 0
-1902 -1905 -7096 -3 1 0
-1900 -1903 -7097 -1 2 0
-1900 -1905 -7097 -1 -3 2 0
-1902 -1903 -7097 -3 -1 2 0
-1902 -1905 -7097 -3 2 0
-1900 -1903 -7098 -1 3 0
-1900 -1904 -7098 -1 -2 3 0
-1901 -1903 -7098 -2 -1 3 0
-1901 -1904 -7098 -2 3 0
-1907 -1910 -7099 -2 1 0
-1907 -1911 -7099 -2 -3 1 0
-1908 -1910 -7099 -3 -2 1 0
-1908 -1911 -7099 -3 1 0
-1906 -1909 -7100 -1 2 0
-1906 -1911 -7100 -1 -3 2 0
-1908 -1909 -7100 -3 -1 2 0
-1908 -1911 -7100 -3 2 0
-1906 -1909 -7101 -1 3 0
-1906 -1910 -7101 -1 -2 3 0
-1907 -1909 -7101 -2 -1 3 0
-1907 -1910 -7101 -2 3 0
-1913 -1916 -7102 -2 1 0
-1913 -1917 -7102 -2 -3 1 0
-1914 -1916 -7102 -3 -2 1 0
-1914 -1917 -7102 -3 1 0
-1912 -1915 -7103 -1 2 0
-1912 -1917 -7103 -1 -3 2 0
-1914 -1915 -7103 -3 -1 2 0
-1914 -1917 -7103 -3 2 0
-1912 -1915 -7104 -1 3 0
-1912 -1916 -7104 -1 -2 3 0
-1913 -1915 -7104 -2 -1 3 0
-1913 -1916 -7104 -2 3 0
-1919 -1922 -7105 -2 1 0
-1919 -1923 -7105 -2 -3 1 0
-1920 -1922 -7105 -3 -2 1 0
-1920 -1923 -7105 -3 1 0
-1918 -1921 -7106 -1 2 0
-1918 -1923 -7106 -1 -3 2 0
-1920 -1921 -7106 -3 -1 2 0
-1920 -1923 -7106 -3 2 0
-1918 -1921 -7107 -1 3 0
-1918 -1922 -7107 -1 -2 3 0
-1919 -1921 -7107 -2 -1 3 0
-1919 -1922 -7107 -2 3 0
-1925 -1928 -7108 -2 1 0
-1925 -1929 -7108 -2 -3 1 0
-1926 -1928 -7108 -3 -2 1 0
-1926 -1929 -7108 -3 1 0
-1924 -1927 -7109 -1 2 0
-1924 -1929 -7109 -1 -3 2 0
-1926 -1927 -7109 -3 -1 2 0
-1926 -1929 -7109 -3 2 0
-1924 -1927 -7110 -1 3 0
-1924 -1928 -7110 -1 -2 3 0
-1925 -1927 -7110 -2 -1 3 0
-1925 -1928 -7110 -2 3 0
-1931 -1934 -7111 -2 1 0
-1931 -1935 -7111 -2 -3 1 0
-1932 -1934 -7111 -3 -2 1 0
-1932 -1935 -7111 -3 1 0
-1930 -1933 -7112 -1 2 0
-1930 -1935 -7112 -1 -3 2 0
-1932 -1933 -7112 -3 -1 2 0
-1932 -1935 -7112 -3 2 0
-1930 -1933 -7113 -1 3 0
-1930 -1934 -7113 -1 -2 3 0
-1931 -1933 -7113 -2 -1 3 0
-1931 -1934 -7113 -2 3 0
-1937 -1940 -7114 -2 1 0
-1937 -1941 -7114 -2 -3 1 0
-1938 -1940 -7114 -3 -2 1 0
-1938 -1941 -7114 -3 1 0
-1936 -1939 -7115 -1 2 0
-1936 -1941 -7115 -1 -3 2 0
-1938 -1939 -7115 -3 -1 2 0
-1938 -1941 -7115 -3 2 0
-1936 -1939 -7116 -1 3 0
-1936 -1940 -7116 -1 -2 3 0
-1937 -1939 -7116 -2 -1 3 0
-1937 -1940 -7116 -2 3 0
-1943 -1946 -7117 -2 1 0
-1943 -1947 -7117 -2 -3 1 0
-1944 -1946 -7117 -3 -2 1 0
-1944 -1947 -7117 -3 1 0
-1942 -1945 -7118 -1 2 0
-1942 -1947 -7118 -1 -3 2 0
-1944 -1945 -7118 -3 -1 2 0
-1944 -1947 -7118 -3 2 0
-1942 -1945 -7119 -1 3 0
-1942 -1946 -7119 -1 -2 3 0
-1943 -1945 -7119 -2 -1 3 0
-1943 -1946 -7119 -2 3 0
-1949 -1952 -7120 -2 1 0
-1949 -1953 -7120 -2 -3 1 0
-1950 -1952 -7120 -3 -2 1 0
-1950 -1953 -7120 -3 1 0
-1948 -1951 -7121 -1 2 0
-1948 -1953 -7121 -1 -3 2 0
-1950 -1951 -7121 -3 -1 2 0
-1950 -1953 -7121 -3 2 0
-1948 -1951 -7122 -1 3 0
-1948 -1952 -7122 -1 -2 3 0
-1949 -1951 -7122 -2 -1 3 0
-1949 -1952 -7122 -2 3 0
-1955 -1958 -7123 -2 1 0
-1955 -1959 -7123 -2 -3 1 0
-1956 -1958 -7123 -3 -2 1 0
-1956 -1959 -7123 -3 1 0
-1954 -1957 -7124 -1 2 0
-1954 -1959 -7124 -1 -3 2 0
-1956 -1957 -7124 -3 -1 2 0
-1956 -1959 -7124 -3 2 0
-1954 -1957 -7125 -1 3 0
-1954 -1958 -7125 -1 -2 3 0
-1955 -1957 -7125 -2 -1 3 0
-1955 -1958 -7125 -2 3 0
-1961 -1964 -7126 -2 1 0
-1961 -1965 -7126 -2 -3 1 0
-1962 -1964 -7126 -3 -2 1 0
-1962 -1965 -7126 -3 1 0
-1960 -1963 -7127 -1 2 0
-1960 -1965 -7127 -1 -3 2 0
-1962 -1963 -7127 -3 -1 2 0
-1962 -1965 -7127 -3 2 0
-1960 -1963 -7128 -1 3 0
-1960 -1964 -7128 -1 -2 3 0
-1961 -1963 -7128 -2 -1 3 0
-1961 -1964 -7128 -2 3 0
-1967 -1970 -7129 -2 1 0
-1967 -1971 -7129 -2 -3 1 0
-1968 -1970 -7129 -3 -2 1 0
-1968 -1971 -7129 -3 1 0
-1966 -1969 -7130 -1 2 0
-1966 -1971 -7130 -1 -3 2 0
-1968 -1969 -7130 -3 -1 2 0
-1968 -1971 -7130 -3 2 0
-1966 -1969 -7131 -1 3 0
-1966 -1970 -7131 -1 -2 3 0
-1967 -1969 -7131 -2 -1 3 0
-1967 -1970 -7131 -2 3 0
-1973 -1976 -7132 -2 1 0
-1973 -1977 -7132 -2 -3 1 0
-1974 -1976 -7132 -3 -2 1 0
-1974 -1977 -7132 -3 1 0
-1972 -1975 -7133 -1 2 0
-1972 -1977 -7133 -1 -3 2 0
-1974 -1975 -7133 -3 -1 2 0
-1974 -1977 -7133 -3 2 0
-1972 -1975 -7134 -1 3 0
-1972 -1976 -7134 -1 -2 3 0
-1973 -1975 -7134 -2 -1 3 0
-1973 -1976 -7134 -2 3 0
-1979 -1982 -7135 -2 1 0
-1979 -1983 -7135 -2 -3 1 0
-1980 -1982 -7135 -3 -2 1 0
-1980 -1983 -7135 -3 1 0
-1978 -1981 -7136 -1 2 0
-1978 -1983 -7136 -1 -3 2 0
-1980 -1981 -7136 -3 -1 2 0
-1980 -1983 -7136 -3 2 0
-1978 -1981 -7137 -1 3 0
-1978 -1982 -7137 -1 -2 3 0
-1979 -1981 -7137 -2 -1 3 0
-1979 -1982 -7137 -2 3 0
-1985 -1988 -7138 -2 1 0
-1985 -1989 -7138 -2 -3 1 0
-1986 -1988 -7138 -3 -2 1 0
-1986 -1989 -7138 -3 1 0
-1984 -1987 -7139 -1 2 0
-1984 -1989 -7139 -1 -3 2 0
-1986 -1987 -7139 -3 -1 2 0
-1986 -1989 -7139 -3 2 0
-1984 -1987 -7140 -1 3 0
-1984 -1988 -7140 -1 -2 3 0
-1985 -1987 -7140 -2 -1 3 0
-1985 -1988 -7140 -2 3 0
-1991 -1994 -7141 -2 1 0
-1991 -1995 -7141 -2 -3 1 0
-1992 -1994 -7141 -3 -2 1 0
-1992 -1995 -7141 -3 1 0
-1990 -1993 -7142 -1 2 0
-1990 -1995 -7142 -1 -3 2 0
-1992 -1993 -7142 -3 -1 2 0
-1992 -1995 -7142 -3 2 0
-1990 -1993 -7143 -1 3 0
-1990 -1994 -7143 -1 -2 3 0
-1991 -1993 -7143 -2 -1 3 0
-1991 -1994 -7143 -2 3 0
-1997 -2000 -7144 -2 1 0
-1997 -2001 -7144 -2 -3 1 0
-1998 -2000 -7144 -3 -2 1 0
-1998 -2001 -7144 -3 1 0
-1996 -1999 -7145 -1 2 0
-1996 -2001 -7145 -1 -3 2 0
-1998 -1999 -7145 -3 -1 2 0
-1998 -2001 -7145 -3 2 0
-1996 -1999 -7146 -1 3 0
-1996 -2000 -7146 -1 -2 3 0
-1997 -1999 -7146 -2 -1 3 0
-1997 -2000 -7146 -2 3 0
-2003 -2006 -7147 -2 1 0
-2003 -2007 -7147 -2 -3 1 0
-2004 -2006 -7147 -3 -2 1 0
-2004 -2007 -7147 -3 1 0
-2002 -2005 -7148 -1 2 0
-2002 -2007 -7148 -1 -3 2 0
-2004 -2005 -7148 -3 -1 2 0
-2004 -2007 -7148 -3 2 0
-2002 -2005 -7149 -1 3 0
-2002 -2006 -7149 -1 -2 3 0
-2003 -2005 -7149 -2 -1 3 0
-2003 -2006 -7149 -2 3 0
-2009 -2012 -7150 -2 1 0
-2009 -2013 -7150 -2 -3 1 0
-2010 -2012 -7150 -3 -2 1 0
-2010 -2013 -7150 -3 1 0
-2008 -2011 -7151 -1 2 0
-2008 -2013 -7151 -1 -3 2 0
-2010 -2011 -7151 -3 -1 2 0
-2010 -2013 -7151 -3 2 0
-2008 -2011 -7152 -1 3 0
-2008 -2012 -7152 -1 -2 3 0
-2009 -2011 -7152 -2 -1 3 0
-2009 -2012 -7152 -2 3 0
-2015 -2018 -7153 -2 1 0
-2015 -2019 -7153 -2 -3 1 0
-2016 -2018 -7153 -3 -2 1 0
-2016 -2019 -7153 -3 1 0
-2014 -2017 -7154 -1 2 0
-2014 -2019 -7154 -1 -3 2 0
-2016 -2017 -7154 -3 -1 2 0
-2016 -2019 -7154 -3 2 0
-2014 -2017 -7155 -1 3 0
-2014 -2018 -7155 -1 -2 3 0
-2015 -2017 -7155 -2 -1 3 0
-2015 -2018 -7155 -2 3 0
-2021 -2024 -7156 -2 1 0
-2021 -2025 -7156 -2 -3 1 0
-2022 -2024 -7156 -3 -2 1 0
-2022 -2025 -7156 -3 1 0
-2020 -2023 -7157 -1 2 0
-2020 -2025 -7157 -1 -3 2 0
-2022 -2023 -7157 -3 -1 2 0
-2022 -2025 -7157 -3 2 0
-2020 -2023 -7158 -1 3 0
-2020 -2024 -7158 -1 -2 3 0
-2021 -2023 -7158 -2 -1 3 0
-2021 -2024 -7158 -2 3 0
-2027 -2030 -7159 -2 1 0
-2027 -2031 -7159 -2 -3 1 0
-2028 -2030 -7159 -3 -2 1 0
-2028 -2031 -7159 -3 1 0
-2026 -2029 -7160 -1 2 0
-2026 -2031 -7160 -1 -3 2 0
-2028 -2029 -7160 -3 -1 2 0
-2028 -2031 -7160 -3 2 0
-2026 -2029 -7161 -1 3 0
-2026 -2030 -7161 -1 -2 3 0
-2027 -2029 -7161 -2 -1 3 0
-2027 -2030 -7161 -2 3 0
-2033 -2036 -7162 -2 1 0
-2033 -2037 -7162 -2 -3 1 0
-2034 -2036 -7162 -3 -2 1 0
-2034 -2037 -7162 -3 1 0
-2032 -2035 -7163 -1 2 0
-2032 -2037 -7163 -1 -3 2 0
-2034 -2035 -7163 -3 -1 2 0
-2034 -2037 -7163 -3 2 0
-2032 -2035 -7164 -1 3 0
-2032 -2036 -7164 -1 -2 3 0
-2033 -2035 -7164 -2 -1 3 0
-2033 -2036 -7164 -2 3 0
-2039 -2042 -7165 -2 1 0
-2039 -2043 -7165 -2 -3 1 0
-2040 -2042 -7165 -3 -2 1 0
-2040 -2043 -7165 -3 1 0
-2038 -2041 -7166 -1 2 0
-2038 -2043 -7166 -1 -3 2 0
-2040 -2041 -7166 -3 -1 2 0
-2040 -2043 -7166 -3 2 0
-2038 -2041 -7167 -1 3 0
-2038 -2042 -7167 -1 -2 3 0
-2039 -2041 -7167 -2 -1 3 0
-2039 -2042 -7167 -2 3 0
-2045 -2048 -7168 -2 1 0
-2045 -2049 -7168 -2 -3 1 0
-2046 -2048 -7168 -3 -2 1 0
-2046 -2049 -7168 -3 1 0
-2044 -2047 -7169 -1 2 0
-2044 -2049 -7169 -1 -3 2 0
-2046 -2047 -7169 -3 -1 2 0
-2046 -2049 -7169 -3 2 0
-2044 -2047 -7170 -1 3 0
-2044 -2048 -7170 -1 -2 3 0
-2045 -2047 -7170 -2 -1 3 0
-2045 -2048 -7170 -2 3 0
-2051 -2054 -7171 -2 1 0
-2051 -2055 -7171 -2 -3 1 0
-2052 -2054 -7171 -3 -2 1 0
-2052 -2055 -7171 -3 1 0
-2050 -2053 -7172 -1 2 0
-2050 -2055 -7172 -1 -3 2 0
-2052 -2053 -7172 -3 -1 2 0
-2052 -2055 -7172 -3 2 0
-2050 -2053 -7173 -1 3 0
-2050 -2054 -7173 -1 -2 3 0
-2051 -2053 -7173 -2 -1 3 0
-2051 -2054 -7173 -2 3 0
-2057 -2060 -7174 -2 1 0
-2057 -2061 -7174 -2 -3 1 0
-2058 -2060 -7174 -3 -2 1 0
-2058 -2061 -7174 -3 1 0
-2056 -2059 -7175 -1 2 0
-2056 -2061 -7175 -1 -3 2 0
-2058 -2059 -7175 -3 -1 2 0
-2058 -2061 -7175 -3 2 0
-2056 -2059 -7176 -1 3 0
-2056 -2060 -7176 -1 -2 3 0
-2057 -2059 -7176 -2 -1 3 0
-2057 -2060 -7176 -2 3 0
-2063 -2066 -7177 -2 1 0
-2063 -2067 -7177 -2 -3 1 0
-2064 -2066 -7177 -3 -2 1 0
-2064 -2067 -7177 -3 1 0
-2062 -2065 -7178 -1 2 0
-2062 -2067 -7178 -1 -3 2 0
-2064 -2065 -7178 -3 -1 2 0
-2064 -2067 -7178 -3 2 0
-2062 -2065 -7179 -1 3 0
-2062 -2066 -7179 -1 -2 3 0
-2063 -2065 -7179 -2 -1 3 0
-2063 -2066 -7179 -2 3 0
-2069 -2072 -7180 -2 1 0
-2069 -2073 -7180 -2 -3 1 0
-2070 -2072 -7180 -3 -2 1 0
-2070 -2073 -7180 -3 1 0
-2068 -2071 -7181 -1 2 0
-2068 -2073 -7181 -1 -3 2 0
-2070 -2071 -7181 -3 -1 2 0
-2070 -2073 -7181 -3 2 0
-2068 -2071 -7182 -1 3 0
-2068 -2072 -7182 -1 -2 3 0
-2069 -2071 -7182 -2 -1 3 0
-2069 -2072 -7182 -2 3 0
-2075 -2078 -7183 -2 1 0
-2075 -2079 -7183 -2 -3 1 0
-2076 -2078 -7183 -3 -2 1 0
-2076 -2079 -7183 -3 1 0
-2074 -2077 -7184 -1 2 0
-2074 -2079 -7184 -1 -3 2 0
-2076 -2077 -7184 -3 -1 2 0
-2076 -2079 -7184 -3 2 0
-2074 -2077 -7185 -1 3 0
-2074 -2078 -7185 -1 -2 3 0
-2075 -2077 -7185 -2 -1 3 0
-2075 -2078 -7185 -2 3 0
-2081 -2084 -7186 -2 1 0
-2081 -2085 -7186 -2 -3 1 0
-2082 -2084 -7186 -3 -2 1 0
-2082 -2085 -7186 -3 1 0
-2080 -2083 -7187 -1 2 0
-2080 -2085 -7187 -1 -3 2 0
-2082 -2083 -7187 -3 -1 2 0
-2082 -2085 -7187 -3 2 0
-2080 -2083 -7188 -1 3 0
-2080 -2084 -7188 -1 -2 3 0
-2081 -2083 -7188 -2 -1 3 0
-2081 -2084 -7188 -2 3 0
-2087 -2090 -7189 -2 1 0
-2087 -2091 -7189 -2 -3 1 0
-2088 -2090 -7189 -3 -2 1 0
-2088 -2091 -7189 -3 1 0
-2086 -2089 -7190 -1 2 0
-2086 -2091 -7190 -1 -3 2 0
-2088 -2089 -7190 -3 -1 2 0
-2088 -2091 -7190 -3 2 0
-2086 -2089 -7191 -1 3 0
-2086 -2090 -7191 -1 -2 3 0
-2087 -2089 -7191 -2 -1 3 0
-2087 -2090 -7191 -2 3 0
-2093 -2096 -7192 -2 1 0
-2093 -2097 -7192 -2 -3 1 0
-2094 -2096 -7192 -3 -2 1 0
-2094 -2097 -7192 -3 1 0
-2092 -2095 -7193 -1 2 0
-2092 -2097 -7193 -1 -3 2 0
-2094 -2095 -7193 -3 -1 2 0
-2094 -2097 -7193 -3 2 0
-2092 -2095 -7194 -1 3 0
-2092 -2096 -7194 -1 -2 3 0
-2093 -2095 -7194 -2 -1 3 0
-2093 -2096 -7194 -2 3 0
-2099 -2102 -7195 -2 1 0
-2099 -2103 -7195 -2 -3 1 0
-2100 -2102 -7195 -3 -2 1 0
-2100 -2103 -7195 -3 1 0
-2098 -2101 -7196 -1 2 0
-2098 -2103 -7196 -1 -3 2 0
-2100 -2101 -7196 -3 -1 2 0
-2100 -2103 -7196 -3 2 0
-2098 -2101 -7197 -1 3 0
-2098 -2102 -7197 -1 -2 3 0
-2099 -2101 -7197 -2 -1 3 0
-2099 -2102 -7197 -2 3 0
-2105 -2108 -7198 -2 1 0
-2105 -2109 -7198 -2 -3 1 0
-2106 -2108 -7198 -3 -2 1 0
-2106 -2109 -7198 -3 1 0
-2104 -2107 -7199 -1 2 0
-2104 -2109 -7199 -1 -3 2 0
-2106 -2107 -7199 -3 -1 2 0
-2106 -2109 -7199 -3 2 0
-2104 -2107 -7200 -1 3 0
-2104 -2108 -7200 -1 -2 3 0
-2105 -2107 -7200 -2 -1 3 0
-2105 -2108 -7200 -2 3 0
-2111 -2114 -7201 -2 1 0
-2111 -2115 -7201 -2 -3 1 0
-2112 -2114 -7201 -3 -2 1 0
-2112 -2115 -7201 -3 1 0
-2110 -2113 -7202 -1 2 0
-2110 -2115 -7202 -1 -3 2 0
-2112 -2113 -7202 -3 -1 2 0
-2112 -2115 -7202 -3 2 0
-2110 -2113 -7203 -1 3 0
-2110 -2114 -7203 -1 -2 3 0
-2111 -2113 -7203 -2 -1 3 0
-2111 -2114 -7203 -2 3 0
-2117 -2120 -7204 -2 1 0
-2117 -2121 -7204 -2 -3 1 0
-2118 -2120 -7204 -3 -2 1 0
-2118 -2121 -7204 -3 1 0
-2116 -2119 -7205 -1 2 0
-2116 -2121 -7205 -1 -3 2 0
-2118 -2119 -7205 -3 -1 2 0
-2118 -2121 -7205 -3 2 0
-2116 -2119 -7206 -1 3 0
-2116 -2120 -7206 -1 -2 3 0
-2117 -2119 -7206 -2 -1 3 0
-2117 -2120 -7206 -2 3 0
-2123 -2126 -7207 -2 1 0
-2123 -2127 -7207 -2 -3 1 0
-2124 -2126 -7207 -3 -2 1 0
-2124 -2127 -7207 -3 1 0
-2122 -2125 -7208 -1 2 0
-2122 -2127 -7208 -1 -3 2 0
-2124 -2125 -7208 -3 -1 2 0
-2124 -2127 -7208 -3 2 0
-2122 -2125 -7209 -1 3 0
-2122 -2126 -7209 -1 -2 3 0
-2123 -2125 -7209 -2 -1 3 0
-2123 -2126 -7209 -2 3 0
-2129 -2132 -7210 -2 1 0
-2129 -2133 -7210 -2 -3 1 0
-2130 -2132 -7210 -3 -2 1 0
-2130 -2133 -7210 -3 1 0
-2128 -2131 -7211 -1 2 0
-2128 -2133 -7211 -1 -3 2 0
-2130 -2131 -7211 -3 -1 2 0
-2130 -2133 -7211 -3 2 0
-2128 -2131 -7212 -1 3 0
-2128 -2132 -7212 -1 -2 3 0
-2129 -2131 -7212 -2 -1 3 0
-2129 -2132 -7212 -2 3 0
-2135 -2138 -7213 -2 1 0
-2135 -2139 -7213 -2 -3 1 0
-2136 -2138 -7213 -3 -2 1 0
-2136 -2139 -7213 -3 1 0
-2134 -2137 -7214 -1 2 0
-2134 -2139 -7214 -1 -3 2 0
-2136 -2137 -7214 -3 -1 2 0
-2136 -2139 -7214 -3 2 0
-2134 -2137 -7215 -1 3 0
-2134 -2138 -7215 -1 -2 3 0
-2135 -2137 -7215 -2 -1 3 0
-2135 -2138 -7215 -2 3 0
-2141 -2144 -7216 -2 1 0
-2141 -2145 -7216 -2 -3 1 0
-2142 -2144 -7216 -3 -2 1 0
-2142 -2145 -7216 -3 1 0
-2140 -2143 -7217 -1 2 0
-2140 -2145 -7217 -1 -3 2 0
-2142 -2143 -7217 -3 -1 2 0
-2142 -2145 -7217 -3 2 0
-2140 -2143 -7218 -1 3 0
-2140 -2144 -7218 -1 -2 3 0
-2141 -2143 -7218 -2 -1 3 0
-2141 -2144 -7218 -2 3 0
-2147 -2150 -7219 -2 1 0
-2147 -2151 -7219 -2 -3 1 0
-2148 -2150 -7219 -3 -2 1 0
-2148 -2151 -7219 -3 1 0
-2146 -2149 -7220 -1 2 0
-2146 -2151 -7220 -1 -3 2 0
-2148 -2149 -7220 -3 -1 2 0
-2148 -2151 -7220 -3 2 0
-2146 -2149 -7221 -1 3 0
-2146 -2150 -7221 -1 -2 3 0
-2147 -2149 -7221 -2 -1 3 0
-2147 -2150 -7221 -2 3 0
-2153 -2156 -7222 -2 1 0
-2153 -2157 -7222 -2 -3 1 0
-2154 -2156 -7222 -3 -2 1 0
-2154 -2157 -7222 -3 1 0
-2152 -2155 -7223 -1 2 0
-2152 -2157 -7223 -1 -3 2 0
-2154 -2155 -7223 -3 -1 2 0
-2154 -2157 -7223 -3 2 0
-2152 -2155 -7224 -1 3 0
-2152 -2156 -7224 -1 -2 3 0
-2153 -2155 -7224 -2 -1 3 0
-2153 -2156 -7224 -2 3 0
-2159 -2162 -7225 -2 1 0
-2159 -2163 -7225 -2 -3 1 0
-2160 -2162 -7225 -3 -2 1 0
-2160 -2163 -7225 -3 1 0
-2158 -2161 -7226 -1 2 0
-2158 -2163 -7226 -1 -3 2 0
-2160 -2161 -7226 -3 -1 2 0
-2160 -2163 -7226 -3 2 0
-2158 -2161 -7227 -1 3 0
-2158 -2162 -7227 -1 -2 3 0
-2159 -2161 -7227 -2 -1 3 0
-2159 -2162 -7227 -2 3 0
-2165 -2168 -7228 -2 1 0
-2165 -2169 -7228 -2 -3 1 0
-2166 -2168 -7228 -3 -2 1 0
-2166 -2169 -7228 -3 1 0
-2164 -2167 -7229 -1 2 0
-2164 -2169 -7229 -1 -3 2 0
-2166 -2167 -7229 -3 -1 2 0
-2166 -2169 -7229 -3 2 0
-2164 -2167 -7230 -1 3 0
-2164 -2168 -7230 -1 -2 3 0
-2165 -2167 -7230 -2 -1 3 0
-2165 -2168 -7230 -2 3 0
-2171 -2174 -7231 -2 1 0
-2171 -2175 -7231 -2 -3 1 0
-2172 -2174 -7231 -3 -2 1 0
-2172 -2175 -7231 -3 1 0
-2170 -2173 -7232 -1 2 0
-2170 -2175 -7232 -1 -3 2 0
-2172 -2173 -7232 -3 -1 2 0
-2172 -2175 -7232 -3 2 0
-2170 -2173 -7233 -1 3 0
-2170 -2174 -7233 -1 -2 3 0
-2171 -2173 -7233 -2 -1 3 0
-2171 -2174 -7233 -2 3 0
-2177 -2180 -7234 -2 1 0
-2177 -2181 -7234 -2 -3 1 0
-2178 -2180 -7234 -3 -2 1 0
-2178 -2181 -7234 -3 1 0
-2176 -2179 -7235 -1 2 0
-2176 -2181 -7235 -1 -3 2 0
-2178 -2179 -7235 -3 -1 2 0
-2178 -2181 -7235 -3 2 0
-2176 -2179 -7236 -1 3 0
-2176 -2180 -7236 -1 -2 3 0
-2177 -2179 -7236 -2 -1 3 0
-2177 -2180 -7236 -2 3 0
-2183 -2186 -7237 -2 1 0
-2183 -2187 -7237 -2 -3 1 0
-2184 -2186 -7237 -3 -2 1 0
-2184 -2187 -7237 -3 1 0
-2182 -2185 -7238 -1 2 0
-2182 -2187 -7238 -1 -3 2 0
-2184 -2185 -7238 -3 -1 2 0
-2184 -2187 -7238 -3 2 0
-2182 -2185 -7239 -1 3 0
-2182 -2186 -7239 -1 -2 3 0
-2183 -2185 -7239 -2 -1 3 0
-2183 -2186 -7239 -2 3 0
-2189 -2192 -7240 -2 1 0
-2189 -2193 -7240 -2 -3 1 0
-2190 -2192 -7240 -3 -2 1 0
-2190 -2193 -7240 -3 1 0
-2188 -2191 -7241 -1 2 0
-2188 -2193 -7241 -1 -3 2 0
-2190 -2191 -7241 -3 -1 2 0
-2190 -2193 -7241 -3 2 0
-2188 -2191 -7242 -1 3 0
-2188 -2192 -7242 -1 -2 3 0
-2189 -2191 -7242 -2 -1 3 0
-2189 -2192 -7242 -2 3 0
-2195 -2198 -7243 -2 1 0
-2195 -2199 -7243 -2 -3 1 0
-2196 -2198 -7243 -3 -2 1 0
-2196 -2199 -7243 -3 1 0
-2194 -2197 -7244 -1 2 0
-2194 -2199 -7244 -1 -3 2 0
-2196 -2197 -7244 -3 -1 2 0
-2196 -2199 -7244 -3 2 0
-2194 -2197 -7245 -1 3 0
-2194 -2198 -7245 -1 -2 3 0
-2195 -2197 -7245 -2 -1 3 0
-2195 -2198 -7245 -2 3 0
-2201 -2204 -7246 -2 1 0
-2201 -2205 -7246 -2 -3 1 0
-2202 -2204 -7246 -3 -2 1 0
-2202 -2205 -7246 -3 1 0
-2200 -2203 -7247 -1 2 0
-2200 -2205 -7247 -1 -3 2 0
-2202 -2203 -7247 -3 -1 2 0
-2202 -2205 -7247 -3 2 0
-2200 -2203 -7248 -1 3 0
-2200 -2204 -7248 -1 -2 3 0
-2201 -2203 -7248 -2 -1 3 0
-2201 -2204 -7248 -2 3 0
-2207 -2210 -7249 -2 1 0
-2207 -2211 -7249 -2 -3 1 0
-2208 -2210 -7249 -3 -2 1 0
-2208 -2211 -7249 -3 1 0
-2206 -2209 -7250 -1 2 0
-2206 -2211 -7250 -1 -3 2 0
-2208 -2209 -7250 -3 -1 2 0
-2208 -2211 -7250 -3 2 0
-2206 -2209 -7251 -1 3 0
-2206 -2210 -7251 -1 -2 3 0
-2207 -2209 -7251 -2 -1 3 0
-2207 -2210 -7251 -2 3 0
-2213 -2216 -7252 -2 1 0
-2213 -2217 -7252 -2 -3 1 0
-2214 -2216 -7252 -3 -2 1 0
-2214 -2217 -7252 -3 1 0
-2212 -2215 -7253 -1 2 0
-2212 -2217 -7253 -1 -3 2 0
-2214 -2215 -7253 -3 -1 2 0
-2214 -2217 -7253 -3 2 0
-2212 -2215 -7254 -1 3 0
-2212 -2216 -7254 -1 -2 3 0
-2213 -2215 -7254 -2 -1 3 0
-2213 -2216 -7254 -2 3 0
-2219 -2222 -7255 -2 1 0
-2219 -2223 -7255 -2 -3 1 0
-2220 -2222 -7255 -3 -2 1 0
-2220 -2223 -7255 -3 1 0
-2218 -2221 -7256 -1 2 0
-2218 -2223 -7256 -1 -3 2 0
-2220 -2221 -7256 -3 -1 2 0
-2220 -2223 -7256 -3 2 0
-2218 -2221 -7257 -1 3 0
-2218 -2222 -7257 -1 -2 3 0
-2219 -2221 -7257 -2 -1 3 0
-2219 -2222 -7257 -2 3 0
-2225 -2228 -7258 -2 1 0
-2225 -2229 -7258 -2 -3 1 0
-2226 -2228 -7258 -3 -2 1 0
-2226 -2229 -7258 -3 1 0
-2224 -2227 -7259 -1 2 0
-2224 -2229 -7259 -1 -3 2 0
-2226 -2227 -7259 -3 -1 2 0
-2226 -2229 -7259 -3 2 0
-2224 -2227 -7260 -1 3 0
-2224 -2228 -7260 -1 -2 3 0
-2225 -2227 -7260 -2 -1 3 0
-2225 -2228 -7260 -2 3 0
-2231 -2234 -7261 -2 1 0
-2231 -2235 -7261 -2 -3 1 0
-2232 -2234 -7261 -3 -2 1 0
-2232 -2235 -7261 -3 1 0
-2230 -2233 -7262 -1 2 0
-2230 -2235 -7262 -1 -3 2 0
-2232 -2233 -7262 -3 -1 2 0
-2232 -2235 -7262 -3 2 0
-2230 -2233 -7263 -1 3 0
-2230 -2234 -7263 -1 -2 3 0
-2231 -2233 -7263 -2 -1 3 0
-2231 -2234 -7263 -2 3 0
-2237 -2240 -7264 -2 1 0
-2237 -2241 -7264 -2 -3 1 0
-2238 -2240 -7264 -3 -2 1 0
-2238 -2241 -7264 -3 1 0
-2236 -2239 -7265 -1 2 0
-2236 -2241 -7265 -1 -3 2 0
-2238 -2239 -7265 -3 -1 2 0
-2238 -2241 -7265 -3 2 0
-2236 -2239 -7266 -1 3 0
-2236 -2240 -7266 -1 -2 3 0
-2237 -2239 -7266 -2 -1 3 0
-2237 -2240 -7266 -2 3 0
-2243 -2246 -7267 -2 1 0
-2243 -2247 -7267 -2 -3 1 0
-2244 -2246 -7267 -3 -2 1 0
-2244 -2247 -7267 -3 1 0
-2242 -2245 -7268 -1 2 0
-2242 -2247 -7268 -1 -3 2 0
-2244 -2245 -7268 -3 -1 2 0
-2244 -2247 -7268 -3 2 0
-2242 -2245 -7269 -1 3 0
-2242 -2246 -7269 -1 -2 3 0
-2243 -2245 -7269 -2 -1 3 0
-2243 -2246 -7269 -2 3 0
-2249 -2252 -7270 -2 1 0
-2249 -2253 -7270 -2 -3 1 0
-2250 -2252 -7270 -3 -2 1 0
-2250 -2253 -7270 -3 1 0
-2248 -2251 -7271 -1 2 0
-2248 -2253 -7271 -1 -3 2 0
-2250 -2251 -7271 -3 -1 2 0
-2250 -2253 -7271 -3 2 0
-2248 -2251 -7272 -1 3 0
-2248 -2252 -7272 -1 -2 3 0
-2249 -2251 -7272 -2 -1 3 0
-2249 -2252 -7272 -2 3 0
-2255 -2258 -7273 -2 1 0
-2255 -2259 -7273 -2 -3 1 0
-2256 -2258 -7273 -3 -2 1 0
-2256 -2259 -7273 -3 1 0
-2254 -2257 -7274 -1 2 0
-2254 -2259 -7274 -1 -3 2 0
-2256 -2257 -7274 -3 -1 2 0
-2256 -2259 -7274 -3 2 0
-2254 -2257 -7275 -1 3 0
-2254 -2258 -7275 -1 -2 3 0
-2255 -2257 -7275 -2 -1 3 0
-2255 -2258 -7275 -2 3 0
-2261 -2264 -7276 -2 1 0
-2261 -2265 -7276 -2 -3 1 0
-2262 -2264 -7276 -3 -2 1 0
-2262 -2265 -7276 -3 1 0
-2260 -2263 -7277 -1 2 0
-2260 -2265 -7277 -1 -3 2 0
-2262 -2263 -7277 -3 -1 2 0
-2262 -2265 -7277 -3 2 0
-2260 -2263 -7278 -1 3 0
-2260 -2264 -7278 -1 -2 3 0
-2261 -2263 -7278 -2 -1 3 0
-2261 -2264 -7278 -2 3 0
-2267 -2270 -7279 -2 1 0
-2267 -2271 -7279 -2 -3 1 0
-2268 -2270 -7279 -3 -2 1 0
-2268 -2271 -7279 -3 1 0
-2266 -2269 -7280 -1 2 0
-2266 -2271 -7280 -1 -3 2 0
-2268 -2269 -7280 -3 -1 2 0
-2268 -2271 -7280 -3 2 0
-2266 -2269 -7281 -1 3 0
-2266 -2270 -7281 -1 -2 3 0
-2267 -2269 -7281 -2 -1 3 0
-2267 -2270 -7281 -2 3 0
-2273 -2276 -7282 -2 1 0
-2273 -2277 -7282 -2 -3 1 0
-2274 -2276 -7282 -3 -2 1 0
-2274 -2277 -7282 -3 1 0
-2272 -2275 -7283 -1 2 0
-2272 -2277 -7283 -1 -3 2 0
-2274 -2275 -7283 -3 -1 2 0
-2274 -2277 -7283 -3 2 0
-2272 -2275 -7284 -1 3 0
-2272 -2276 -7284 -1 -2 3 0
-2273 -2275 -7284 -2 -1 3 0
-2273 -2276 -7284 -2 3 0
-2279 -2282 -7285 -2 1 0
-2279 -2283 -7285 -2 -3 1 0
-2280 -2282 -7285 -3 -2 1 0
-2280 -2283 -7285 -3 1 0
-2278 -2281 -7286 -1 2 0
-2278 -2283 -7286 -1 -3 2 0
-2280 -2281 -7286 -3 -1 2 0
-2280 -2283 -7286 -3 2 0
-2278 -2281 -7287 -1 3 0
-2278 -2282 -7287 -1 -2 3 0
-2279 -2281 -7287 -2 -1 3 0
-2279 -2282 -7287 -2 3 0
-2285 -2288 -7288 -2 1 0
-2285 -2289 -7288 -2 -3 1 0
-2286 -2288 -7288 -3 -2 1 0
-2286 -2289 -7288 -3 1 0
-2284 -2287 -7289 -1 2 0
-2284 -2289 -7289 -1 -3 2 0
-2286 -2287 -7289 -3 -1 2 0
-2286 -2289 -7289 -3 2 0
-2284 -2287 -7290 -1 3 0
-2284 -2288 -7290 -1 -2 3 0
-2285 -2287 -7290 -2 -1 3 0
-2285 -2288 -7290 -2 3 0
-2291 -2294 -7291 -2 1 0
-2291 -2295 -7291 -2 -3 1 0
-2292 -2294 -7291 -3 -2 1 0
-2292 -2295 -7291 -3 1 0
-2290 -2293 -7292 -1 2 0
-2290 -2295 -7292 -1 -3 2 0
-2292 -2293 -7292 -3 -1 2 0
-2292 -2295 -7292 -3 2 0
-2290 -2293 -7293 -1 3 0
-2290 -2294 -7293 -1 -2 3 0
-2291 -2293 -7293 -2 -1 3 0
-2291 -2294 -7293 -2 3 0
-2297 -2300 -7294 -2 1 0
-2297 -2301 -7294 -2 -3 1 0
-2298 -2300 -7294 -3 -2 1 0
-2298 -2301 -7294 -3 1 0
-2296 -2299 -7295 -1 2 0
-2296 -2301 -7295 -1 -3 2 0
-2298 -2299 -7295 -3 -1 2 0
-2298 -2301 -7295 -3 2 0
-2296 -2299 -7296 -1 3 0
-2296 -2300 -7296 -1 -2 3 0
-2297 -2299 -7296 -2 -1 3 0
-2297 -2300 -7296 -2 3 0
-2303 -2306 -7297 -2 1 0
-2303 -2307 -7297 -2 -3 1 0
-2304 -2306 -7297 -3 -2 1 0
-2304 -2307 -7297 -3 1 0
-2302 -2305 -7298 -1 2 0
-2302 -2307 -7298 -1 -3 2 0
-2304 -2305 -7298 -3 -1 2 0
-2304 -2307 -7298 -3 2 0
-2302 -2305 -7299 -1 3 0
-2302 -2306 -7299 -1 -2 3 0
-2303 -2305 -7299 -2 -1 3 0
-2303 -2306 -7299 -2 3 0
-2309 -2312 -7300 -2 1 0
-2309 -2313 -7300 -2 -3 1 0
-2310 -2312 -7300 -3 -2 1 0
-2310 -2313 -7300 -3 1 0
-2308 -2311 -7301 -1 2 0
-2308 -2313 -7301 -1 -3 2 0
-2310 -2311 -7301 -3 -1 2 0
-2310 -2313 -7301 -3 2 0
-2308 -2311 -7302 -1 3 0
-2308 -2312 -7302 -1 -2 3 0
-2309 -2311 -7302 -2 -1 3 0
-2309 -2312 -7302 -2 3 0
-2315 -2318 -7303 -2 1 0
-2315 -2319 -7303 -2 -3 1 0
-2316 -2318 -7303 -3 -2 1 0
-2316 -2319 -7303 -3 1 0
-2314 -2317 -7304 -1 2 0
-2314 -2319 -7304 -1 -3 2 0
-2316 -2317 -7304 -3 -1 2 0
-2316 -2319 -7304 -3 2 0
-2314 -2317 -7305 -1 3 0
-2314 -2318 -7305 -1 -2 3 0
-2315 -2317 -7305 -2 -1 3 0
-2315 -2318 -7305 -2 3 0
-2321 -2324 -7306 -2 1 0
-2321 -2325 -7306 -2 -3 1 0
-2322 -2324 -7306 -3 -2 1 0
-2322 -2325 -7306 -3 1 0
-2320 -2323 -7307 -1 2 0
-2320 -2325 -7307 -1 -3 2 0
-2322 -2323 -7307 -3 -1 2 0
-2322 -2325 -7307 -3 2 0
-2320 -2323 -7308 -1 3 0
-2320 -2324 -7308 -1 -2 3 0
-2321 -2323 -7308 -2 -1 3 0
-2321 -2324 -7308 -2 3 0
-2327 -2330 -7309 -2 1 0
-2327 -2331 -7309 -2 -3 1 0
-2328 -2330 -7309 -3 -2 1 0
-2328 -2331 -7309 -3 1 0
-2326 -2329 -7310 -1 2 0
-2326 -2331 -7310 -1 -3 2 0
-2328 -2329 -7310 -3 -1 2 0
-2328 -2331 -7310 -3 2 0
-2326 -2329 -7311 -1 3 0
-2326 -2330 -7311 -1 -2 3 0
-2327 -2329 -7311 -2 -1 3 0
-2327 -2330 -7311 -2 3 0
-2333 -2336 -7312 -2 1 0
-2333 -2337 -7312 -2 -3 1 0
-2334 -2336 -7312 -3 -2 1 0
-2334 -2337 -7312 -3 1 0
-2332 -2335 -7313 -1 2 0
-2332 -2337 -7313 -1 -3 2 0
-2334 -2335 -7313 -3 -1 2 0
-2334 -2337 -7313 -3 2 0
-2332 -2335 -7314 -1 3 0
-2332 -2336 -7314 -1 -2 3 0
-2333 -2335 -7314 -2 -1 3 0
-2333 -2336 -7314 -2 3 0
-2339 -2342 -7315 -2 1 0
-2339 -2343 -7315 -2 -3 1 0
-2340 -2342 -7315 -3 -2 1 0
-2340 -2343 -7315 -3 1 0
-2338 -2341 -7316 -1 2 0
-2338 -2343 -7316 -1 -3 2 0
-2340 -2341 -7316 -3 -1 2 0
-2340 -2343 -7316 -3 2 0
-2338 -2341 -7317 -1 3 0
-2338 -2342 -7317 -1 -2 3 0
-2339 -2341 -7317 -2 -1 3 0
-2339 -2342 -7317 -2 3 0
-2345 -2348 -7318 -2 1 0
-2345 -2349 -7318 -2 -3 1 0
-2346 -2348 -7318 -3 -2 1 0
-2346 -2349 -7318 -3 1 0
-2344 -2347 -7319 -1 2 0
-2344 -2349 -7319 -1 -3 2 0
-2346 -2347 -7319 -3 -1 2 0
-2346 -2349 -7319 -3 2 0
-2344 -2347 -7320 -1 3 0
-2344 -2348 -7320 -1 -2 3 0
-2345 -2347 -7320 -2 -1 3 0
-2345 -2348 -7320 -2 3 0
-2351 -2354 -7321 -2 1 0
-2351 -2355 -7321 -2 -3 1 0
-2352 -2354 -7321 -3 -2 1 0
-2352 -2355 -7321 -3 1 0
-2350 -2353 -7322 -1 2 0
-2350 -2355 -7322 -1 -3 2 0
-2352 -2353 -7322 -3 -1 2 0
-2352 -2355 -7322 -3 2 0
-2350 -2353 -7323 -1 3 0
-2350 -2354 -7323 -1 -2 3 0
-2351 -2353 -7323 -2 -1 3 0
-2351 -2354 -7323 -2 3 0
-2357 -2360 -7324 -2 1 0
-2357 -2361 -7324 -2 -3 1 0
-2358 -2360 -7324 -3 -2 1 0
-2358 -2361 -7324 -3 1 0
-2356 -2359 -7325 -1 2 0
-2356 -2361 -7325 -1 -3 2 0
-2358 -2359 -7325 -3 -1 2 0
-2358 -2361 -7325 -3 2 0
-2356 -2359 -7326 -1 3 0
-2356 -2360 -7326 -1 -2 3 0
-2357 -2359 -7326 -2 -1 3 0
-2357 -2360 -7326 -2 3 0
-2363 -2366 -7327 -2 1 0
-2363 -2367 -7327 -2 -3 1 0
-2364 -2366 -7327 -3 -2 1 0
-2364 -2367 -7327 -3 1 0
-2362 -2365 -7328 -1 2 0
-2362 -2367 -7328 -1 -3 2 0
-2364 -2365 -7328 -3 -1 2 0
-2364 -2367 -7328 -3 2 0
-2362 -2365 -7329 -1 3 0
-2362 -2366 -7329 -1 -2 3 0
-2363 -2365 -7329 -2 -1 3 0
-2363 -2366 -7329 -2 3 0
-2369 -2372 -7330 -2 1 0
-2369 -2373 -7330 -2 -3 1 0
-2370 -2372 -7330 -3 -2 1 0
-2370 -2373 -7330 -3 1 0
-2368 -2371 -7331 -1 2 0
-2368 -2373 -7331 -1 -3 2 0
-2370 -2371 -7331 -3 -1 2 0
-2370 -2373 -7331 -3 2 0
-2368 -2371 -7332 -1 3 0
-2368 -2372 -7332 -1 -2 3 0
-2369 -2371 -7332 -2 -1 3 0
-2369 -2372 -7332 -2 3 0
-2375 -2378 -7333 -2 1 0
-2375 -2379 -7333 -2 -3 1 0
-2376 -2378 -7333 -3 -2 1 0
-2376 -2379 -7333 -3 1 0
-2374 -2377 -7334 -1 2 0
-2374 -2379 -7334 -1 -3 2 0
-2376 -2377 -7334 -3 -1 2 0
-2376 -2379 -7334 -3 2 0
-2374 -2377 -7335 -1 3 0
-2374 -2378 -7335 -1 -2 3 0
-2375 -2377 -7335 -2 -1 3 0
-2375 -2378 -7335 -2 3 0
-2381 -2384 -7336 -2 1 0
-2381 -2385 -7336 -2 -3 1 0
-2382 -2384 -7336 -3 -2 1 0
-2382 -2385 -7336 -3 1 0
-2380 -2383 -7337 -1 2 0
-2380 -2385 -7337 -1 -3 2 0
-2382 -2383 -7337 -3 -1 2 0
-2382 -2385 -7337 -3 2 0
-2380 -2383 -7338 -1 3 0
-2380 -2384 -7338 -1 -2 3 0
-2381 -2383 -7338 -2 -1 3 0
-2381 -2384 -7338 -2 3 0
-2387 -2390 -7339 -2 1 0
-2387 -2391 -7339 -2 -3 1 0
-2388 -2390 -7339 -3 -2 1 0
-2388 -2391 -7339 -3 1 0
-2386 -2389 -7340 -1 2 0
-2386 -2391 -7340 -1 -3 2 0
-2388 -2389 -7340 -3 -1 2 0
-2388 -2391 -7340 -3 2 0
-2386 -2389 -7341 -1 3 0
-2386 -2390 -7341 -1 -2 3 0
-2387 -2389 -7341 -2 -1 3 0
-2387 -2390 -7341 -2 3 0
-2393 -2396 -7342 -2 1 0
-2393 -2397 -7342 -2 -3 1 0
-2394 -2396 -7342 -3 -2 1 0
-2394 -2397 -7342 -3 1 0
-2392 -2395 -7343 -1 2 0
-2392 -2397 -7343 -1 -3 2 0
-2394 -2395 -7343 -3 -1 2 0
-2394 -2397 -7343 -3 2 0
-2392 -2395 -7344 -1 3 0
-2392 -2396 -7344 -1 -2 3 0
-2393 -2395 -7344 -2 -1 3 0
-2393 -2396 -7344 -2 3 0
-2399 -2402 -7345 -2 1 0
-2399 -2403 -7345 -2 -3 1 0
-2400 -2402 -7345 -3 -2 1 0
-2400 -2403 -7345 -3 1 0
-2398 -2401 -7346 -1 2 0
-2398 -2403 -7346 -1 -3 2 0
-2400 -2401 -7346 -3 -1 2 0
-2400 -2403 -7346 -3 2 0
-2398 -2401 -7347 -1 3 0
-2398 -2402 -7347 -1 -2 3 0
-2399 -2401 -7347 -2 -1 3 0
-2399 -2402 -7347 -2 3 0
-2405 -2408 -7348 -2 1 0
-2405 -2409 -7348 -2 -3 1 0
-2406 -2408 -7348 -3 -2 1 0
-2406 -2409 -7348 -3 1 0
-2404 -2407 -7349 -1 2 0
-2404 -2409 -7349 -1 -3 2 0
-2406 -2407 -7349 -3 -1 2 0
-2406 -2409 -7349 -3 2 0
-2404 -2407 -7350 -1 3 0
-2404 -2408 -7350 -1 -2 3 0
-2405 -2407 -7350 -2 -1 3 0
-2405 -2408 -7350 -2 3 0
-2411 -2414 -7351 -2 1 0
-2411 -2415 -7351 -2 -3 1 0
-2412 -2414 -7351 -3 -2 1 0
-2412 -2415 -7351 -3 1 0
-2410 -2413 -7352 -1 2 0
-2410 -2415 -7352 -1 -3 2 0
-2412 -2413 -7352 -3 -1 2 0
-2412 -2415 -7352 -3 2 0
-2410 -2413 -7353 -1 3 0
-2410 -2414 -7353 -1 -2 3 0
-2411 -2413 -7353 -2 -1 3 0
-2411 -2414 -7353 -2 3 0
-2417 -2420 -7354 -2 1 0
-2417 -2421 -7354 -2 -3 1 0
-2418 -2420 -7354 -3 -2 1 0
-2418 -2421 -7354 -3 1 0
-2416 -2419 -7355 -1 2 0
-2416 -2421 -7355 -1 -3 2 0
-2418 -2419 -7355 -3 -1 2 0
-2418 -2421 -7355 -3 2 0
-2416 -2419 -7356 -1 3 0
-2416 -2420 -7356 -1 -2 3 0
-2417 -2419 -7356 -2 -1 3 0
-2417 -2420 -7356 -2 3 0
-2423 -2426 -7357 -2 1 0
-2423 -2427 -7357 -2 -3 1 0
-2424 -2426 -7357 -3 -2 1 0
-2424 -2427 -7357 -3 1 0
-2422 -2425 -7358 -1 2 0
-2422 -2427 -7358 -1 -3 2 0
-2424 -2425 -7358 -3 -1 2 0
-2424 -2427 -7358 -3 2 0
-2422 -2425 -7359 -1 3 0
-2422 -2426 -7359 -1 -2 3 0
-2423 -2425 -7359 -2 -1 3 0
-2423 -2426 -7359 -2 3 0
-2429 -2432 -7360 -2 1 0
-2429 -2433 -7360 -2 -3 1 0
-2430 -2432 -7360 -3 -2 1 0
-2430 -2433 -7360 -3 1 0
-2428 -2431 -7361 -1 2 0
-2428 -2433 -7361 -1 -3 2 0
-2430 -2431 -7361 -3 -1 2 0
-2430 -2433 -7361 -3 2 0
-2428 -2431 -7362 -1 3 0
-2428 -2432 -7362 -1 -2 3 0
-2429 -2431 -7362 -2 -1 3 0
-2429 -2432 -7362 -2 3 0
-2435 -2438 -7363 -2 1 0
-2435 -2439 -7363 -2 -3 1 0
-2436 -2438 -7363 -3 -2 1 0
-2436 -2439 -7363 -3 1 0
-2434 -2437 -7364 -1 2 0
-2434 -2439 -7364 -1 -3 2 0
-2436 -2437 -7364 -3 -1 2 0
-2436 -2439 -7364 -3 2 0
-2434 -2437 -7365 -1 3 0
-2434 -2438 -7365 -1 -2 3 0
-2435 -2437 -7365 -2 -1 3 0
-2435 -2438 -7365 -2 3 0
-2441 -2444 -7366 -2 1 0
-2441 -2445 -7366 -2 -3 1 0
-2442 -2444 -7366 -3 -2 1 0
-2442 -2445 -7366 -3 1 0
-2440 -2443 -7367 -1 2 0
-2440 -2445 -7367 -1 -3 2 0
-2442 -2443 -7367 -3 -1 2 0
-2442 -2445 -7367 -3 2 0
-2440 -2443 -7368 -1 3 0
-2440 -2444 -7368 -1 -2 3 0
-2441 -2443 -7368 -2 -1 3 0
-2441 -2444 -7368 -2 3 0
-2447 -2450 -7369 -2 1 0
-2447 -2451 -7369 -2 -3 1 0
-2448 -2450 -7369 -3 -2 1 0
-2448 -2451 -7369 -3 1 0
-2446 -2449 -7370 -1 2 0
-2446 -2451 -7370 -1 -3 2 0
-2448 -2449 -7370 -3 -1 2 0
-2448 -2451 -7370 -3 2 0
-2446 -2449 -7371 -1 3 0
-2446 -2450 -7371 -1 -2 3 0
-2447 -2449 -7371 -2 -1 3 0
-2447 -2450 -7371 -2 3 0
-2453 -2456 -7372 -2 1 0
-2453 -2457 -7372 -2 -3 1 0
-2454 -2456 -7372 -3 -2 1 0
-2454 -2457 -7372 -3 1 0
-2452 -2455 -7373 -1 2 0
-2452 -2457 -7373 -1 -3 2 0
-2454 -2455 -7373 -3 -1 2 0
-2454 -2457 -7373 -3 2 0
-2452 -2455 -7374 -1 3 0
-2452 -2456 -7374 -1 -2 3 0
-2453 -2455 -7374 -2 -1 3 0
-2453 -2456 -7374 -2 3 0
-2459 -2462 -7375 -2 1 0
-2459 -2463 -7375 -2 -3 1 0
-2460 -2462 -7375 -3 -2 1 0
-2460 -2463 -7375 -3 1 0
-2458 -2461 -7376 -1 2 0
-2458 -2463 -7376 -1 -3 2 0
-2460 -2461 -7376 -3 -1 2 0
-2460 -2463 -7376 -3 2 0
-2458 -2461 -7377 -1 3 0
-2458 -2462 -7377 -1 -2 3 0
-2459 -2461 -7377 -2 -1 3 0
-2459 -2462 -7377 -2 3 0
-2465 -2468 -7378 -2 1 0
-2465 -2469 -7378 -2 -3 1 0
-2466 -2468 -7378 -3 -2 1 0
-2466 -2469 -7378 -3 1 0
-2464 -2467 -7379 -1 2 0
-2464 -2469 -7379 -1 -3 2 0
-2466 -2467 -7379 -3 -1 2 0
-2466 -2469 -7379 -3 2 0
-2464 -2467 -7380 -1 3 0
-2464 -2468 -7380 -1 -2 3 0
-2465 -2467 -7380 -2 -1 3 0
-2465 -2468 -7380 -2 3 0
-2471 -2474 -7381 -2 1 0
-2471 -2475 -7381 -2 -3 1 0
-2472 -2474 -7381 -3 -2 1 0
-2472 -2475 -7381 -3 1 0
-2470 -2473 -7382 -1 2 0
-2470 -2475 -7382 -1 -3 2 0
-2472 -2473 -7382 -3 -1 2 0
-2472 -2475 -7382 -3 2 0
-2470 -2473 -7383 -1 3 0
-2470 -2474 -7383 -1 -2 3 0
-2471 -2473 -7383 -2 -1 3 0
-2471 -2474 -7383 -2 3 0
-2477 -2480 -7384 -2 1 0
-2477 -2481 -7384 -2 -3 1 0
-2478 -2480 -7384 -3 -2 1 0
-2478 -2481 -7384 -3 1 0
-2476 -2479 -7385 -1 2 0
-2476 -2481 -7385 -1 -3 2 0
-2478 -2479 -7385 -3 -1 2 0
-2478 -2481 -7385 -3 2 0
-2476 -2479 -7386 -1 3 0
-2476 -2480 -7386 -1 -2 3 0
-2477 -2479 -7386 -2 -1 3 0
-2477 -2480 -7386 -2 3 0
-2483 -2486 -7387 -2 1 0
-2483 -2487 -7387 -2 -3 1 0
-2484 -2486 -7387 -3 -2 1 0
-2484 -2487 -7387 -3 1 0
-2482 -2485 -7388 -1 2 0
-2482 -2487 -7388 -1 -3 2 0
-2484 -2485 -7388 -3 -1 2 0
-2484 -2487 -7388 -3 2 0
-2482 -2485 -7389 -1 3 0
-2482 -2486 -7389 -1 -2 3 0
-2483 -2485 -7389 -2 -1 3 0
-2483 -2486 -7389 -2 3 0
-2489 -2492 -7390 -2 1 0
-2489 -2493 -7390 -2 -3 1 0
-2490 -2492 -7390 -3 -2 1 0
-2490 -2493 -7390 -3 1 0
-2488 -2491 -7391 -1 2 0
-2488 -2493 -7391 -1 -3 2 0
-2490 -2491 -7391 -3 -1 2 0
-2490 -2493 -7391 -3 2 0
-2488 -2491 -7392 -1 3 0
-2488 -2492 -7392 -1 -2 3 0
-2489 -2491 -7392 -2 -1 3 0
-2489 -2492 -7392 -2 3 0
-2495 -2498 -7393 -2 1 0
-2495 -2499 -7393 -2 -3 1 0
-2496 -2498 -7393 -3 -2 1 0
-2496 -2499 -7393 -3 1 0
-2494 -2497 -7394 -1 2 0
-2494 -2499 -7394 -1 -3 2 0
-2496 -2497 -7394 -3 -1 2 0
-2496 -2499 -7394 -3 2 0
-2494 -2497 -7395 -1 3 0
-2494 -2498 -7395 -1 -2 3 0
-2495 -2497 -7395 -2 -1 3 0
-2495 -2498 -7395 -2 3 0
-2501 -2504 -7396 -2 1 0
-2501 -2505 -7396 -2 -3 1 0
-2502 -2504 -7396 -3 -2 1 0
-2502 -2505 -7396 -3 1 0
-2500 -2503 -7397 -1 2 0
-2500 -2505 -7397 -1 -3 2 0
-2502 -2503 -7397 -3 -1 2 0
-2502 -2505 -7397 -3 2 0
-2500 -2503 -7398 -1 3 0
-2500 -2504 -7398 -1 -2 3 0
-2501 -2503 -7398 -2 -1 3 0
-2501 -2504 -7398 -2 3 0
-2507 -2510 -7399 -2 1 0
-2507 -2511 -7399 -2 -3 1 0
-2508 -2510 -7399 -3 -2 1 0
-2508 -2511 -7399 -3 1 0
-2506 -2509 -7400 -1 2 0
-2506 -2511 -7400 -1 -3 2 0
-2508 -2509 -7400 -3 -1 2 0
-2508 -2511 -7400 -3 2 0
-2506 -2509 -7401 -1 3 0
-2506 -2510 -7401 -1 -2 3 0
-2507 -2509 -7401 -2 -1 3 0
-2507 -2510 -7401 -2 3 0
-2513 -2516 -7402 -2 1 0
-2513 -2517 -7402 -2 -3 1 0
-2514 -2516 -7402 -3 -2 1 0
-2514 -2517 -7402 -3 1 0
-2512 -2515 -7403 -1 2 0
-2512 -2517 -7403 -1 -3 2 0
-2514 -2515 -7403 -3 -1 2 0
-2514 -2517 -7403 -3 2 0
-2512 -2515 -7404 -1 3 0
-2512 -2516 -7404 -1 -2 3 0
-2513 -2515 -7404 -2 -1 3 0
-2513 -2516 -7404 -2 3 0
-2519 -2522 -7405 -2 1 0
-2519 -2523 -7405 -2 -3 1 0
-2520 -2522 -7405 -3 -2 1 0
-2520 -2523 -7405 -3 1 0
-2518 -2521 -7406 -1 2 0
-2518 -2523 -7406 -1 -3 2 0
-2520 -2521 -7406 -3 -1 2 0
-2520 -2523 -7406 -3 2 0
-2518 -2521 -7407 -1 3 0
-2518 -2522 -7407 -1 -2 3 0
-2519 -2521 -7407 -2 -1 3 0
-2519 -2522 -7407 -2 3 0
-2525 -2528 -7408 -2 1 0
-2525 -2529 -7408 -2 -3 1 0
-2526 -2528 -7408 -3 -2 1 0
-2526 -2529 -7408 -3 1 0
-2524 -2527 -7409 -1 2 0
-2524 -2529 -7409 -1 -3 2 0
-2526 -2527 -7409 -3 -1 2 0
-2526 -2529 -7409 -3 2 0
-2524 -2527 -7410 -1 3 0
-2524 -2528 -7410 -1 -2 3 0
-2525 -2527 -7410 -2 -1 3 0
-2525 -2528 -7410 -2 3 0
-2531 -2534 -7411 -2 1 0
-2531 -2535 -7411 -2 -3 1 0
-2532 -2534 -7411 -3 -2 1 0
-2532 -2535 -7411 -3 1 0
-2530 -2533 -7412 -1 2 0
-2530 -2535 -7412 -1 -3 2 0
-2532 -2533 -7412 -3 -1 2 0
-2532 -2535 -7412 -3 2 0
-2530 -2533 -7413 -1 3 0
-2530 -2534 -7413 -1 -2 3 0
-2531 -2533 -7413 -2 -1 3 0
-2531 -2534 -7413 -2 3 0
-2537 -2540 -7414 -2 1 0
-2537 -2541 -7414 -2 -3 1 0
-2538 -2540 -7414 -3 -2 1 0
-2538 -2541 -7414 -3 1 0
-2536 -2539 -7415 -1 2 0
-2536 -2541 -7415 -1 -3 2 0
-2538 -2539 -7415 -3 -1 2 0
-2538 -2541 -7415 -3 2 0
-2536 -2539 -7416 -1 3 0
-2536 -2540 -7416 -1 -2 3 0
-2537 -2539 -7416 -2 -1 3 0
-2537 -2540 -7416 -2 3 0
-2543 -2546 -7417 -2 1 0
-2543 -2547 -7417 -2 -3 1 0
-2544 -2546 -7417 -3 -2 1 0
-2544 -2547 -7417 -3 1 0
-2542 -2545 -7418 -1 2 0
-2542 -2547 -7418 -1 -3 2 0
-2544 -2545 -7418 -3 -1 2 0
-2544 -2547 -7418 -3 2 0
-2542 -2545 -7419 -1 3 0
-2542 -2546 -7419 -1 -2 3 0
-2543 -2545 -7419 -2 -1 3 0
-2543 -2546 -7419 -2 3 0
-2549 -2552 -7420 -2 1 0
-2549 -2553 -7420 -2 -3 1 0
-2550 -2552 -7420 -3 -2 1 0
-2550 -2553 -7420 -3 1 0
-2548 -2551 -7421 -1 2 0
-2548 -2553 -7421 -1 -3 2 0
-2550 -2551 -7421 -3 -1 2 0
-2550 -2553 -7421 -3 2 0
-2548 -2551 -7422 -1 3 0
-2548 -2552 -7422 -1 -2 3 0
-2549 -2551 -7422 -2 -1 3 0
-2549 -2552 -7422 -2 3 0
-2555 -2558 -7423 -2 1 0
-2555 -2559 -7423 -2 -3 1 0
-2556 -2558 -7423 -3 -2 1 0
-2556 -2559 -7423 -3 1 0
-2554 -2557 -7424 -1 2 0
-2554 -2559 -7424 -1 -3 2 0
-2556 -2557 -7424 -3 -1 2 0
-2556 -2559 -7424 -3 2 0
-2554 -2557 -7425 -1 3 0
-2554 -2558 -7425 -1 -2 3 0
-2555 -2557 -7425 -2 -1 3 0
-2555 -2558 -7425 -2 3 0
-2561 -2564 -7426 -2 1 0
-2561 -2565 -7426 -2 -3 1 0
-2562 -2564 -7426 -3 -2 1 0
-2562 -2565 -7426 -3 1 0
-2560 -2563 -7427 -1 2 0
-2560 -2565 -7427 -1 -3 2 0
-2562 -2563 -7427 -3 -1 2 0
-2562 -2565 -7427 -3 2 0
-2560 -2563 -7428 -1 3 0
-2560 -2564 -7428 -1 -2 3 0
-2561 -2563 -7428 -2 -1 3 0
-2561 -2564 -7428 -2 3 0
-2567 -2570 -7429 -2 1 0
-2567 -2571 -7429 -2 -3 1 0
-2568 -2570 -7429 -3 -2 1 0
-2568 -2571 -7429 -3 1 0
-2566 -2569 -7430 -1 2 0
-2566 -2571 -7430 -1 -3 2 0
-2568 -2569 -7430 -3 -1 2 0
-2568 -2571 -7430 -3 2 0
-2566 -2569 -7431 -1 3 0
-2566 -2570 -7431 -1 -2 3 0
-2567 -2569 -7431 -2 -1 3 0
-2567 -2570 -7431 -2 3 0
-2573 -2576 -7432 -2 1 0
-2573 -2577 -7432 -2 -3 1 0
-2574 -2576 -7432 -3 -2 1 0
-2574 -2577 -7432 -3 1 0
-2572 -2575 -7433 -1 2 0
-2572 -2577 -7433 -1 -3 2 0
-2574 -2575 -7433 -3 -1 2 0
-2574 -2577 -7433 -3 2 0
-2572 -2575 -7434 -1 3 0
-2572 -2576 -7434 -1 -2 3 0
-2573 -2575 -7434 -2 -1 3 0
-2573 -2576 -7434 -2 3 0
-2579 -2582 -7435 -2 1 0
-2579 -2583 -7435 -2 -3 1 0
-2580 -2582 -7435 -3 -2 1 0
-2580 -2583 -7435 -3 1 0
-2578 -2581 -7436 -1 2 0
-2578 -2583 -7436 -1 -3 2 0
-2580 -2581 -7436 -3 -1 2 0
-2580 -2583 -7436 -3 2 0
-2578 -2581 -7437 -1 3 0
-2578 -2582 -7437 -1 -2 3 0
-2579 -2581 -7437 -2 -1 3 0
-2579 -2582 -7437 -2 3 0
-2585 -2588 -7438 -2 1 0
-2585 -2589 -7438 -2 -3 1 0
-2586 -2588 -7438 -3 -2 1 0
-2586 -2589 -7438 -3 1 0
-2584 -2587 -7439 -1 2 0
-2584 -2589 -7439 -1 -3 2 0
-2586 -2587 -7439 -3 -1 2 0
-2586 -2589 -7439 -3 2 0
-2584 -2587 -7440 -1 3 0
-2584 -2588 -7440 -1 -2 3 0
-2585 -2587 -7440 -2 -1 3 0
-2585 -2588 -7440 -2 3 0
-2591 -2594 -7441 -2 1 0
-2591 -2595 -7441 -2 -3 1 0
-2592 -2594 -7441 -3 -2 1 0
-2592 -2595 -7441 -3 1 0
-2590 -2593 -7442 -1 2 0
-2590 -2595 -7442 -1 -3 2 0
-2592 -2593 -7442 -3 -1 2 0
-2592 -2595 -7442 -3 2 0
-2590 -2593 -7443 -1 3 0
-2590 -2594 -7443 -1 -2 3 0
-2591 -2593 -7443 -2 -1 3 0
-2591 -2594 -7443 -2 3 0
-2597 -2600 -7444 -2 1 0
-2597 -2601 -7444 -2 -3 1 0
-2598 -2600 -7444 -3 -2 1 0
-2598 -2601 -7444 -3 1 0
-2596 -2599 -7445 -1 2 0
-2596 -2601 -7445 -1 -3 2 0
-2598 -2599 -7445 -3 -1 2 0
-2598 -2601 -7445 -3 2 0
-2596 -2599 -7446 -1 3 0
-2596 -2600 -7446 -1 -2 3 0
-2597 -2599 -7446 -2 -1 3 0
-2597 -2600 -7446 -2 3 0
-2603 -2606 -7447 -2 1 0
-2603 -2607 -7447 -2 -3 1 0
-2604 -2606 -7447 -3 -2 1 0
-2604 -2607 -7447 -3 1 0
-2602 -2605 -7448 -1 2 0
-2602 -2607 -7448 -1 -3 2 0
-2604 -2605 -7448 -3 -1 2 0
-2604 -2607 -7448 -3 2 0
-2602 -2605 -7449 -1 3 0
-2602 -2606 -7449 -1 -2 3 0
-2603 -2605 -7449 -2 -1 3 0
-2603 -2606 -7449 -2 3 0
-2609 -2612 -7450 -2 1 0
-2609 -2613 -7450 -2 -3 1 0
-2610 -2612 -7450 -3 -2 1 0
-2610 -2613 -7450 -3 1 0
-2608 -2611 -7451 -1 2 0
-2608 -2613 -7451 -1 -3 2 0
-2610 -2611 -7451 -3 -1 2 0
-2610 -2613 -7451 -3 2 0
-2608 -2611 -7452 -1 3 0
-2608 -2612 -7452 -1 -2 3 0
-2609 -2611 -7452 -2 -1 3 0
-2609 -2612 -7452 -2 3 0
-2615 -2618 -7453 -2 1 0
-2615 -2619 -7453 -2 -3 1 0
-2616 -2618 -7453 -3 -2 1 0
-2616 -2619 -7453 -3 1 0
-2614 -2617 -7454 -1 2 0
-2614 -2619 -7454 -1 -3 2 0
-2616 -2617 -7454 -3 -1 2 0
-2616 -2619 -7454 -3 2 0
-2614 -2617 -7455 -1 3 0
-2614 -2618 -7455 -1 -2 3 0
-2615 -2617 -7455 -2 -1 3 0
-2615 -2618 -7455 -2 3 0
-2621 -2624 -7456 -2 1 0
-2621 -2625 -7456 -2 -3 1 0
-2622 -2624 -7456 -3 -2 1 0
-2622 -2625 -7456 -3 1 0
-2620 -2623 -7457 -1 2 0
-2620 -2625 -7457 -1 -3 2 0
-2622 -2623 -7457 -3 -1 2 0
-2622 -2625 -7457 -3 2 0
-2620 -2623 -7458 -1 3 0
-2620 -2624 -7458 -1 -2 3 0
-2621 -2623 -7458 -2 -1 3 0
-2621 -2624 -7458 -2 3 0
-2627 -2630 -7459 -2 1 0
-2627 -2631 -7459 -2 -3 1 0
-2628 -2630 -7459 -3 -2 1 0
-2628 -2631 -7459 -3 1 0
-2626 -2629 -7460 -1 2 0
-2626 -2631 -7460 -1 -3 2 0
-2628 -2629 -7460 -3 -1 2 0
-2628 -2631 -7460 -3 2 0
-2626 -2629 -7461 -1 3 0
-2626 -2630 -7461 -1 -2 3 0
-2627 -2629 -7461 -2 -1 3 0
-2627 -2630 -7461 -2 3 0
-2633 -2636 -7462 -2 1 0
-2633 -2637 -7462 -2 -3 1 0
-2634 -2636 -7462 -3 -2 1 0
-2634 -2637 -7462 -3 1 0
-2632 -2635 -7463 -1 2 0
-2632 -2637 -7463 -1 -3 2 0
-2634 -2635 -7463 -3 -1 2 0
-2634 -2637 -7463 -3 2 0
-2632 -2635 -7464 -1 3 0
-2632 -2636 -7464 -1 -2 3 0
-2633 -2635 -7464 -2 -1 3 0
-2633 -2636 -7464 -2 3 0
-2639 -2642 -7465 -2 1 0
-2639 -2643 -7465 -2 -3 1 0
-2640 -2642 -7465 -3 -2 1 0
-2640 -2643 -7465 -3 1 0
-2638 -2641 -7466 -1 2 0
-2638 -2643 -7466 -1 -3 2 0
-2640 -2641 -7466 -3 -1 2 0
-2640 -2643 -7466 -3 2 0
-2638 -2641 -7467 -1 3 0
-2638 -2642 -7467 -1 -2 3 0
-2639 -2641 -7467 -2 -1 3 0
-2639 -2642 -7467 -2 3 0
-2645 -2648 -7468 -2 1 0
-2645 -2649 -7468 -2 -3 1 0
-2646 -2648 -7468 -3 -2 1 0
-2646 -2649 -7468 -3 1 0
-2644 -2647 -7469 -1 2 0
-2644 -2649 -7469 -1 -3 2 0
-2646 -2647 -7469 -3 -1 2 0
-2646 -2649 -7469 -3 2 0
-2644 -2647 -7470 -1 3 0
-2644 -2648 -7470 -1 -2 3 0
-2645 -2647 -7470 -2 -1 3 0
-2645 -2648 -7470 -2 3 0
-2651 -2654 -7471 -2 1 0
-2651 -2655 -7471 -2 -3 1 0
-2652 -2654 -7471 -3 -2 1 0
-2652 -2655 -7471 -3 1 0
-2650 -2653 -7472 -1 2 0
-2650 -2655 -7472 -1 -3 2 0
-2652 -2653 -7472 -3 -1 2 0
-2652 -2655 -7472 -3 2 0
-2650 -2653 -7473 -1 3 0
-2650 -2654 -7473 -1 -2 3 0
-2651 -2653 -7473 -2 -1 3 0
-2651 -2654 -7473 -2 3 0
-2657 -2660 -7474 -2 1 0
-2657 -2661 -7474 -2 -3 1 0
-2658 -2660 -7474 -3 -2 1 0
-2658 -2661 -7474 -3 1 0
-2656 -2659 -7475 -1 2 0
-2656 -2661 -7475 -1 -3 2 0
-2658 -2659 -7475 -3 -1 2 0
-2658 -2661 -7475 -3 2 0
-2656 -2659 -7476 -1 3 0
-2656 -2660 -7476 -1 -2 3 0
-2657 -2659 -7476 -2 -1 3 0
-2657 -2660 -7476 -2 3 0
-2663 -2666 -7477 -2 1 0
-2663 -2667 -7477 -2 -3 1 0
-2664 -2666 -7477 -3 -2 1 0
-2664 -2667 -7477 -3 1 0
-2662 -2665 -7478 -1 2 0
-2662 -2667 -7478 -1 -3 2 0
-2664 -2665 -7478 -3 -1 2 0
-2664 -2667 -7478 -3 2 0
-2662 -2665 -7479 -1 3 0
-2662 -2666 -7479 -1 -2 3 0
-2663 -2665 -7479 -2 -1 3 0
-2663 -2666 -7479 -2 3 0
-2669 -2672 -7480 -2 1 0
-2669 -2673 -7480 -2 -3 1 0
-2670 -2672 -7480 -3 -2 1 0
-2670 -2673 -7480 -3 1 0
-2668 -2671 -7481 -1 2 0
-2668 -2673 -7481 -1 -3 2 0
-2670 -2671 -7481 -3 -1 2 0
-2670 -2673 -7481 -3 2 0
-2668 -2671 -7482 -1 3 0
-2668 -2672 -7482 -1 -2 3 0
-2669 -2671 -7482 -2 -1 3 0
-2669 -2672 -7482 -2 3 0
-2675 -2678 -7483 -2 1 0
-2675 -2679 -7483 -2 -3 1 0
-2676 -2678 -7483 -3 -2 1 0
-2676 -2679 -7483 -3 1 0
-2674 -2677 -7484 -1 2 0
-2674 -2679 -7484 -1 -3 2 0
-2676 -2677 -7484 -3 -1 2 0
-2676 -2679 -7484 -3 2 0
-2674 -2677 -7485 -1 3 0
-2674 -2678 -7485 -1 -2 3 0
-2675 -2677 -7485 -2 -1 3 0
-2675 -2678 -7485 -2 3 0
-2681 -2684 -7486 -2 1 0
-2681 -2685 -7486 -2 -3 1 0
-2682 -2684 -7486 -3 -2 1 0
-2682 -2685 -7486 -3 1 0
-2680 -2683 -7487 -1 2 0
-2680 -2685 -7487 -1 -3 2 0
-2682 -2683 -7487 -3 -1 2 0
-2682 -2685 -7487 -3 2 0
-2680 -2683 -7488 -1 3 0
-2680 -2684 -7488 -1 -2 3 0
-2681 -2683 -7488 -2 -1 3 0
-2681 -2684 -7488 -2 3 0
-2687 -2690 -7489 -2 1 0
-2687 -2691 -7489 -2 -3 1 0
-2688 -2690 -7489 -3 -2 1 0
-2688 -2691 -7489 -3 1 0
-2686 -2689 -7490 -1 2 0
-2686 -2691 -7490 -1 -3 2 0
-2688 -2689 -7490 -3 -1 2 0
-2688 -2691 -7490 -3 2 0
-2686 -2689 -7491 -1 3 0
-2686 -2690 -7491 -1 -2 3 0
-2687 -2689 -7491 -2 -1 3 0
-2687 -2690 -7491 -2 3 0
-2693 -2696 -7492 -2 1 0
-2693 -2697 -7492 -2 -3 1 0
-2694 -2696 -7492 -3 -2 1 0
-2694 -2697 -7492 -3 1 0
-2692 -2695 -7493 -1 2 0
-2692 -2697 -7493 -1 -3 2 0
-2694 -2695 -7493 -3 -1 2 0
-2694 -2697 -7493 -3 2 0
-2692 -2695 -7494 -1 3 0
-2692 -2696 -7494 -1 -2 3 0
-2693 -2695 -7494 -2 -1 3 0
-2693 -2696 -7494 -2 3 0
-2699 -2702 -7495 -2 1 0
-2699 -2703 -7495 -2 -3 1 0
-2700 -2702 -7495 -3 -2 1 0
-2700 -2703 -7495 -3 1 0
-2698 -2701 -7496 -1 2 0
-2698 -2703 -7496 -1 -3 2 0
-2700 -2701 -7496 -3 -1 2 0
-2700 -2703 -7496 -3 2 0
-2698 -2701 -7497 -1 3 0
-2698 -2702 -7497 -1 -2 3 0
-2699 -2701 -7497 -2 -1 3 0
-2699 -2702 -7497 -2 3 0
-2705 -2708 -7498 -2 1 0
-2705 -2709 -7498 -2 -3 1 0
-2706 -2708 -7498 -3 -2 1 0
-2706 -2709 -7498 -3 1 0
-2704 -2707 -7499 -1 2 0
-2704 -2709 -7499 -1 -3 2 0
-2706 -2707 -7499 -3 -1 2 0
-2706 -2709 -7499 -3 2 0
-2704 -2707 -7500 -1 3 0
-2704 -2708 -7500 -1 -2 3 0
-2705 -2707 -7500 -2 -1 3 0
-2705 -2708 -7500 -2 3 0
-2711 -2714 -7501 -2 1 0
-2711 -2715 -7501 -2 -3 1 0
-2712 -2714 -7501 -3 -2 1 0
-2712 -2715 -7501 -3 1 0
-2710 -2713 -7502 -1 2 0
-2710 -2715 -7502 -1 -3 2 0
-2712 -2713 -7502 -3 -1 2 0
-2712 -2715 -7502 -3 2 0
-2710 -2713 -7503 -1 3 0
-2710 -2714 -7503 -1 -2 3 0
-2711 -2713 -7503 -2 -1 3 0
-2711 -2714 -7503 -2 3 0
-2717 -2720 -7504 -2 1 0
-2717 -2721 -7504 -2 -3 1 0
-2718 -2720 -7504 -3 -2 1 0
-2718 -2721 -7504 -3 1 0
-2716 -2719 -7505 -1 2 0
-2716 -2721 -7505 -1 -3 2 0
-2718 -2719 -7505 -3 -1 2 0
-2718 -2721 -7505 -3 2 0
-2716 -2719 -7506 -1 3 0
-2716 -2720 -7506 -1 -2 3 0
-2717 -2719 -7506 -2 -1 3 0
-2717 -2720 -7506 -2 3 0
-2723 -2726 -7507 -2 1 0
-2723 -2727 -7507 -2 -3 1 0
-2724 -2726 -7507 -3 -2 1 0
-2724 -2727 -7507 -3 1 0
-2722 -2725 -7508 -1 2 0
-2722 -2727 -7508 -1 -3 2 0
-2724 -2725 -7508 -3 -1 2 0
-2724 -2727 -7508 -3 2 0
-2722 -2725 -7509 -1 3 0
-2722 -2726 -7509 -1 -2 3 0
-2723 -2725 -7509 -2 -1 3 0
-2723 -2726 -7509 -2 3 0
-2729 -2732 -7510 -2 1 0
-2729 -2733 -7510 -2 -3 1 0
-2730 -2732 -7510 -3 -2 1 0
-2730 -2733 -7510 -3 1 0
-2728 -2731 -7511 -1 2 0
-2728 -2733 -7511 -1 -3 2 0
-2730 -2731 -7511 -3 -1 2 0
-2730 -2733 -7511 -3 2 0
-2728 -2731 -7512 -1 3 0
-2728 -2732 -7512 -1 -2 3 0
-2729 -2731 -7512 -2 -1 3 0
-2729 -2732 -7512 -2 3 0
-2735 -2738 -7513 -2 1 0
-2735 -2739 -7513 -2 -3 1 0
-2736 -2738 -7513 -3 -2 1 0
-2736 -2739 -7513 -3 1 0
-2734 -2737 -7514 -1 2 0
-2734 -2739 -7514 -1 -3 2 0
-2736 -2737 -7514 -3 -1 2 0
-2736 -2739 -7514 -3 2 0
-2734 -2737 -7515 -1 3 0
-2734 -2738 -7515 -1 -2 3 0
-2735 -2737 -7515 -2 -1 3 0
-2735 -2738 -7515 -2 3 0
-2741 -2744 -7516 -2 1 0
-2741 -2745 -7516 -2 -3 1 0
-2742 -2744 -7516 -3 -2 1 0
-2742 -2745 -7516 -3 1 0
-2740 -2743 -7517 -1 2 0
-2740 -2745 -7517 -1 -3 2 0
-2742 -2743 -7517 -3 -1 2 0
-2742 -2745 -7517 -3 2 0
-2740 -2743 -7518 -1 3 0
-2740 -2744 -7518 -1 -2 3 0
-2741 -2743 -7518 -2 -1 3 0
-2741 -2744 -7518 -2 3 0
-2747 -2750 -7519 -2 1 0
-2747 -2751 -7519 -2 -3 1 0
-2748 -2750 -7519 -3 -2 1 0
-2748 -2751 -7519 -3 1 0
-2746 -2749 -7520 -1 2 0
-2746 -2751 -7520 -1 -3 2 0
-2748 -2749 -7520 -3 -1 2 0
-2748 -2751 -7520 -3 2 0
-2746 -2749 -7521 -1 3 0
-2746 -2750 -7521 -1 -2 3 0
-2747 -2749 -7521 -2 -1 3 0
-2747 -2750 -7521 -2 3 0
-2753 -2756 -7522 -2 1 0
-2753 -2757 -7522 -2 -3 1 0
-2754 -2756 -7522 -3 -2 1 0
-2754 -2757 -7522 -3 1 0
-2752 -2755 -7523 -1 2 0
-2752 -2757 -7523 -1 -3 2 0
-2754 -2755 -7523 -3 -1 2 0
-2754 -2757 -7523 -3 2 0
-2752 -2755 -7524 -1 3 0
-2752 -2756 -7524 -1 -2 3 0
-2753 -2755 -7524 -2 -1 3 0
-2753 -2756 -7524 -2 3 0
-2759 -2762 -7525 -2 1 0
-2759 -2763 -7525 -2 -3 1 0
-2760 -2762 -7525 -3 -2 1 0
-2760 -2763 -7525 -3 1 0
-2758 -2761 -7526 -1 2 0
-2758 -2763 -7526 -1 -3 2 0
-2760 -2761 -7526 -3 -1 2 0
-2760 -2763 -7526 -3 2 0
-2758 -2761 -7527 -1 3 0
-2758 -2762 -7527 -1 -2 3 0
-2759 -2761 -7527 -2 -1 3 0
-2759 -2762 -7527 -2 3 0
-2765 -2768 -7528 -2 1 0
-2765 -2769 -7528 -2 -3 1 0
-2766 -2768 -7528 -3 -2 1 0
-2766 -2769 -7528 -3 1 0
-2764 -2767 -7529 -1 2 0
-2764 -2769 -7529 -1 -3 2 0
-2766 -2767 -7529 -3 -1 2 0
-2766 -2769 -7529 -3 2 0
-2764 -2767 -7530 -1 3 0
-2764 -2768 -7530 -1 -2 3 0
-2765 -2767 -7530 -2 -1 3 0
-2765 -2768 -7530 -2 3 0
-2771 -2774 -7531 -2 1 0
-2771 -2775 -7531 -2 -3 1 0
-2772 -2774 -7531 -3 -2 1 0
-2772 -2775 -7531 -3 1 0
-2770 -2773 -7532 -1 2 0
-2770 -2775 -7532 -1 -3 2 0
-2772 -2773 -7532 -3 -1 2 0
-2772 -2775 -7532 -3 2 0
-2770 -2773 -7533 -1 3 0
-2770 -2774 -7533 -1 -2 3 0
-2771 -2773 -7533 -2 -1 3 0
-2771 -2774 -7533 -2 3 0
-2777 -2780 -7534 -2 1 0
-2777 -2781 -7534 -2 -3 1 0
-2778 -2780 -7534 -3 -2 1 0
-2778 -2781 -7534 -3 1 0
-2776 -2779 -7535 -1 2 0
-2776 -2781 -7535 -1 -3 2 0
-2778 -2779 -7535 -3 -1 2 0
-2778 -2781 -7535 -3 2 0
-2776 -2779 -7536 -1 3 0
-2776 -2780 -7536 -1 -2 3 0
-2777 -2779 -7536 -2 -1 3 0
-2777 -2780 -7536 -2 3 0
-2783 -2786 -7537 -2 1 0
-2783 -2787 -7537 -2 -3 1 0
-2784 -2786 -7537 -3 -2 1 0
-2784 -2787 -7537 -3 1 0
-2782 -2785 -7538 -1 2 0
-2782 -2787 -7538 -1 -3 2 0
-2784 -2785 -7538 -3 -1 2 0
-2784 -2787 -7538 -3 2 0
-2782 -2785 -7539 -1 3 0
-2782 -2786 -7539 -1 -2 3 0
-2783 -2785 -7539 -2 -1 3 0
-2783 -2786 -7539 -2 3 0
-2789 -2792 -7540 -2 1 0
-2789 -2793 -7540 -2 -3 1 0
-2790 -2792 -7540 -3 -2 1 0
-2790 -2793 -7540 -3 1 0
-2788 -2791 -7541 -1 2 0
-2788 -2793 -7541 -1 -3 2 0
-2790 -2791 -7541 -3 -1 2 0
-2790 -2793 -7541 -3 2 0
-2788 -2791 -7542 -1 3 0
-2788 -2792 -7542 -1 -2 3 0
-2789 -2791 -7542 -2 -1 3 0
-2789 -2792 -7542 -2 3 0
-2795 -2798 -7543 -2 1 0
-2795 -2799 -7543 -2 -3 1 0
-2796 -2798 -7543 -3 -2 1 0
-2796 -2799 -7543 -3 1 0
-2794 -2797 -7544 -1 2 0
-2794 -2799 -7544 -1 -3 2 0
-2796 -2797 -7544 -3 -1 2 0
-2796 -2799 -7544 -3 2 0
-2794 -2797 -7545 -1 3 0
-2794 -2798 -7545 -1 -2 3 0
-2795 -2797 -7545 -2 -1 3 0
-2795 -2798 -7545 -2 3 0
-2801 -2804 -7546 -2 1 0
-2801 -2805 -7546 -2 -3 1 0
-2802 -2804 -7546 -3 -2 1 0
-2802 -2805 -7546 -3 1 0
-2800 -2803 -7547 -1 2 0
-2800 -2805 -7547 -1 -3 2 0
-2802 -2803 -7547 -3 -1 2 0
-2802 -2805 -7547 -3 2 0
-2800 -2803 -7548 -1 3 0
-2800 -2804 -7548 -1 -2 3 0
-2801 -2803 -7548 -2 -1 3 0
-2801 -2804 -7548 -2 3 0
-2807 -2810 -7549 -2 1 0
-2807 -2811 -7549 -2 -3 1 0
-2808 -2810 -7549 -3 -2 1 0
-2808 -2811 -7549 -3 1 0
-2806 -2809 -7550 -1 2 0
-2806 -2811 -7550 -1 -3 2 0
-2808 -2809 -7550 -3 -1 2 0
-2808 -2811 -7550 -3 2 0
-2806 -2809 -7551 -1 3 0
-2806 -2810 -7551 -1 -2 3 0
-2807 -2809 -7551 -2 -1 3 0
-2807 -2810 -7551 -2 3 0
-2813 -2816 -7552 -2 1 0
-2813 -2817 -7552 -2 -3 1 0
-2814 -2816 -7552 -3 -2 1 0
-2814 -2817 -7552 -3 1 0
-2812 -2815 -7553 -1 2 0
-2812 -2817 -7553 -1 -3 2 0
-2814 -2815 -7553 -3 -1 2 0
-2814 -2817 -7553 -3 2 0
-2812 -2815 -7554 -1 3 0
-2812 -2816 -7554 -1 -2 3 0
-2813 -2815 -7554 -2 -1 3 0
-2813 -2816 -7554 -2 3 0
-2819 -2822 -7555 -2 1 0
-2819 -2823 -7555 -2 -3 1 0
-2820 -2822 -7555 -3 -2 1 0
-2820 -2823 -7555 -3 1 0
-2818 -2821 -7556 -1 2 0
-2818 -2823 -7556 -1 -3 2 0
-2820 -2821 -7556 -3 -1 2 0
-2820 -2823 -7556 -3 2 0
-2818 -2821 -7557 -1 3 0
-2818 -2822 -7557 -1 -2 3 0
-2819 -2821 -7557 -2 -1 3 0
-2819 -2822 -7557 -2 3 0
-2825 -2828 -7558 -2 1 0
-2825 -2829 -7558 -2 -3 1 0
-2826 -2828 -7558 -3 -2 1 0
-2826 -2829 -7558 -3 1 0
-2824 -2827 -7559 -1 2 0
-2824 -2829 -7559 -1 -3 2 0
-2826 -2827 -7559 -3 -1 2 0
-2826 -2829 -7559 -3 2 0
-2824 -2827 -7560 -1 3 0
-2824 -2828 -7560 -1 -2 3 0
-2825 -2827 -7560 -2 -1 3 0
-2825 -2828 -7560 -2 3 0
-2831 -2834 -7561 -2 1 0
-2831 -2835 -7561 -2 -3 1 0
-2832 -2834 -7561 -3 -2 1 0
-2832 -2835 -7561 -3 1 0
-2830 -2833 -7562 -1 2 0
-2830 -2835 -7562 -1 -3 2 0
-2832 -2833 -7562 -3 -1 2 0
-2832 -2835 -7562 -3 2 0
-2830 -2833 -7563 -1 3 0
-2830 -2834 -7563 -1 -2 3 0
-2831 -2833 -7563 -2 -1 3 0
-2831 -2834 -7563 -2 3 0
-2837 -2840 -7564 -2 1 0
-2837 -2841 -7564 -2 -3 1 0
-2838 -2840 -7564 -3 -2 1 0
-2838 -2841 -7564 -3 1 0
-2836 -2839 -7565 -1 2 0
-2836 -2841 -7565 -1 -3 2 0
-2838 -2839 -7565 -3 -1 2 0
-2838 -2841 -7565 -3 2 0
-2836 -2839 -7566 -1 3 0
-2836 -2840 -7566 -1 -2 3 0
-2837 -2839 -7566 -2 -1 3 0
-2837 -2840 -7566 -2 3 0
-2843 -2846 -7567 -2 1 0
-2843 -2847 -7567 -2 -3 1 0
-2844 -2846 -7567 -3 -2 1 0
-2844 -2847 -7567 -3 1 0
-2842 -2845 -7568 -1 2 0
-2842 -2847 -7568 -1 -3 2 0
-2844 -2845 -7568 -3 -1 2 0
-2844 -2847 -7568 -3 2 0
-2842 -2845 -7569 -1 3 0
-2842 -2846 -7569 -1 -2 3 0
-2843 -2845 -7569 -2 -1 3 0
-2843 -2846 -7569 -2 3 0
-2849 -2852 -7570 -2 1 0
-2849 -2853 -7570 -2 -3 1 0
-2850 -2852 -7570 -3 -2 1 0
-2850 -2853 -7570 -3 1 0
-2848 -2851 -7571 -1 2 0
-2848 -2853 -7571 -1 -3 2 0
-2850 -2851 -7571 -3 -1 2 0
-2850 -2853 -7571 -3 2 0
-2848 -2851 -7572 -1 3 0
-2848 -2852 -7572 -1 -2 3 0
-2849 -2851 -7572 -2 -1 3 0
-2849 -2852 -7572 -2 3 0
-2855 -2858 -7573 -2 1 0
-2855 -2859 -7573 -2 -3 1 0
-2856 -2858 -7573 -3 -2 1 0
-2856 -2859 -7573 -3 1 0
-2854 -2857 -7574 -1 2 0
-2854 -2859 -7574 -1 -3 2 0
-2856 -2857 -7574 -3 -1 2 0
-2856 -2859 -7574 -3 2 0
-2854 -2857 -7575 -1 3 0
-2854 -2858 -7575 -1 -2 3 0
-2855 -2857 -7575 -2 -1 3 0
-2855 -2858 -7575 -2 3 0
-2861 -2864 -7576 -2 1 0
-2861 -2865 -7576 -2 -3 1 0
-2862 -2864 -7576 -3 -2 1 0
-2862 -2865 -7576 -3 1 0
-2860 -2863 -7577 -1 2 0
-2860 -2865 -7577 -1 -3 2 0
-2862 -2863 -7577 -3 -1 2 0
-2862 -2865 -7577 -3 2 0
-2860 -2863 -7578 -1 3 0
-2860 -2864 -7578 -1 -2 3 0
-2861 -2863 -7578 -2 -1 3 0
-2861 -2864 -7578 -2 3 0
-2867 -2870 -7579 -2 1 0
-2867 -2871 -7579 -2 -3 1 0
-2868 -2870 -7579 -3 -2 1 0
-2868 -2871 -7579 -3 1 0
-2866 -2869 -7580 -1 2 0
-2866 -2871 -7580 -1 -3 2 0
-2868 -2869 -7580 -3 -1 2 0
-2868 -2871 -7580 -3 2 0
-2866 -2869 -7581 -1 3 0
-2866 -2870 -7581 -1 -2 3 0
-2867 -2869 -7581 -2 -1 3 0
-2867 -2870 -7581 -2 3 0
-2873 -2876 -7582 -2 1 0
-2873 -2877 -7582 -2 -3 1 0
-2874 -2876 -7582 -3 -2 1 0
-2874 -2877 -7582 -3 1 0
-2872 -2875 -7583 -1 2 0
-2872 -2877 -7583 -1 -3 2 0
-2874 -2875 -7583 -3 -1 2 0
-2874 -2877 -7583 -3 2 0
-2872 -2875 -7584 -1 3 0
-2872 -2876 -7584 -1 -2 3 0
-2873 -2875 -7584 -2 -1 3 0
-2873 -2876 -7584 -2 3 0
-2879 -2882 -7585 -2 1 0
-2879 -2883 -7585 -2 -3 1 0
-2880 -2882 -7585 -3 -2 1 0
-2880 -2883 -7585 -3 1 0
-2878 -2881 -7586 -1 2 0
-2878 -2883 -7586 -1 -3 2 0
-2880 -2881 -7586 -3 -1 2 0
-2880 -2883 -7586 -3 2 0
-2878 -2881 -7587 -1 3 0
-2878 -2882 -7587 -1 -2 3 0
-2879 -2881 -7587 -2 -1 3 0
-2879 -2882 -7587 -2 3 0
-2885 -2888 -7588 -2 1 0
-2885 -2889 -7588 -2 -3 1 0
-2886 -2888 -7588 -3 -2 1 0
-2886 -2889 -7588 -3 1 0
-2884 -2887 -7589 -1 2 0
-2884 -2889 -7589 -1 -3 2 0
-2886 -2887 -7589 -3 -1 2 0
-2886 -2889 -7589 -3 2 0
-2884 -2887 -7590 -1 3 0
-2884 -2888 -7590 -1 -2 3 0
-2885 -2887 -7590 -2 -1 3 0
-2885 -2888 -7590 -2 3 0
-2891 -2894 -7591 -2 1 0
-2891 -2895 -7591 -2 -3 1 0
-2892 -2894 -7591 -3 -2 1 0
-2892 -2895 -7591 -3 1 0
-2890 -2893 -7592 -1 2 0
-2890 -2895 -7592 -1 -3 2 0
-2892 -2893 -7592 -3 -1 2 0
-2892 -2895 -7592 -3 2 0
-2890 -2893 -7593 -1 3 0
-2890 -2894 -7593 -1 -2 3 0
-2891 -2893 -7593 -2 -1 3 0
-2891 -2894 -7593 -2 3 0
-2897 -2900 -7594 -2 1 0
-2897 -2901 -7594 -2 -3 1 0
-2898 -2900 -7594 -3 -2 1 0
-2898 -2901 -7594 -3 1 0
-2896 -2899 -7595 -1 2 0
-2896 -2901 -7595 -1 -3 2 0
-2898 -2899 -7595 -3 -1 2 0
-2898 -2901 -7595 -3 2 0
-2896 -2899 -7596 -1 3 0
-2896 -2900 -7596 -1 -2 3 0
-2897 -2899 -7596 -2 -1 3 0
-2897 -2900 -7596 -2 3 0
-2903 -2906 -7597 -2 1 0
-2903 -2907 -7597 -2 -3 1 0
-2904 -2906 -7597 -3 -2 1 0
-2904 -2907 -7597 -3 1 0
-2902 -2905 -7598 -1 2 0
-2902 -2907 -7598 -1 -3 2 0
-2904 -2905 -7598 -3 -1 2 0
-2904 -2907 -7598 -3 2 0
-2902 -2905 -7599 -1 3 0
-2902 -2906 -7599 -1 -2 3 0
-2903 -2905 -7599 -2 -1 3 0
-2903 -2906 -7599 -2 3 0
-2909 -2912 -7600 -2 1 0
-2909 -2913 -7600 -2 -3 1 0
-2910 -2912 -7600 -3 -2 1 0
-2910 -2913 -7600 -3 1 0
-2908 -2911 -7601 -1 2 0
-2908 -2913 -7601 -1 -3 2 0
-2910 -2911 -7601 -3 -1 2 0
-2910 -2913 -7601 -3 2 0
-2908 -2911 -7602 -1 3 0
-2908 -2912 -7602 -1 -2 3 0
-2909 -2911 -7602 -2 -1 3 0
-2909 -2912 -7602 -2 3 0
-2915 -2918 -7603 -2 1 0
-2915 -2919 -7603 -2 -3 1 0
-2916 -2918 -7603 -3 -2 1 0
-2916 -2919 -7603 -3 1 0
-2914 -2917 -7604 -1 2 0
-2914 -2919 -7604 -1 -3 2 0
-2916 -2917 -7604 -3 -1 2 0
-2916 -2919 -7604 -3 2 0
-2914 -2917 -7605 -1 3 0
-2914 -2918 -7605 -1 -2 3 0
-2915 -2917 -7605 -2 -1 3 0
-2915 -2918 -7605 -2 3 0
-2921 -2924 -7606 -2 1 0
-2921 -2925 -7606 -2 -3 1 0
-2922 -2924 -7606 -3 -2 1 0
-2922 -2925 -7606 -3 1 0
-2920 -2923 -7607 -1 2 0
-2920 -2925 -7607 -1 -3 2 0
-2922 -2923 -7607 -3 -1 2 0
-2922 -2925 -7607 -3 2 0
-2920 -2923 -7608 -1 3 0
-2920 -2924 -7608 -1 -2 3 0
-2921 -2923 -7608 -2 -1 3 0
-2921 -2924 -7608 -2 3 0
-2927 -2930 -7609 -2 1 0
-2927 -2931 -7609 -2 -3 1 0
-2928 -2930 -7609 -3 -2 1 0
-2928 -2931 -7609 -3 1 0
-2926 -2929 -7610 -1 2 0
-2926 -2931 -7610 -1 -3 2 0
-2928 -2929 -7610 -3 -1 2 0
-2928 -2931 -7610 -3 2 0
-2926 -2929 -7611 -1 3 0
-2926 -2930 -7611 -1 -2 3 0
-2927 -2929 -7611 -2 -1 3 0
-2927 -2930 -7611 -2 3 0
-2933 -2936 -7612 -2 1 0
-2933 -2937 -7612 -2 -3 1 0
-2934 -2936 -7612 -3 -2 1 0
-2934 -2937 -7612 -3 1 0
-2932 -2935 -7613 -1 2 0
-2932 -2937 -7613 -1 -3 2 0
-2934 -2935 -7613 -3 -1 2 0
-2934 -2937 -7613 -3 2 0
-2932 -2935 -7614 -1 3 0
-2932 -2936 -7614 -1 -2 3 0
-2933 -2935 -7614 -2 -1 3 0
-2933 -2936 -7614 -2 3 0
-2939 -2942 -7615 -2 1 0
-2939 -2943 -7615 -2 -3 1 0
-2940 -2942 -7615 -3 -2 1 0
-2940 -2943 -7615 -3 1 0
-2938 -2941 -7616 -1 2 0
-2938 -2943 -7616 -1 -3 2 0
-2940 -2941 -7616 -3 -1 2 0
-2940 -2943 -7616 -3 2 0
-2938 -2941 -7617 -1 3 0
-2938 -2942 -7617 -1 -2 3 0
-2939 -2941 -7617 -2 -1 3 0
-2939 -2942 -7617 -2 3 0
-2945 -2948 -7618 -2 1 0
-2945 -2949 -7618 -2 -3 1 0
-2946 -2948 -7618 -3 -2 1 0
-2946 -2949 -7618 -3 1 0
-2944 -2947 -7619 -1 2 0
-2944 -2949 -7619 -1 -3 2 0
-2946 -2947 -7619 -3 -1 2 0
-2946 -2949 -7619 -3 2 0
-2944 -2947 -7620 -1 3 0
-2944 -2948 -7620 -1 -2 3 0
-2945 -2947 -7620 -2 -1 3 0
-2945 -2948 -7620 -2 3 0
-2951 -2954 -7621 -2 1 0
-2951 -2955 -7621 -2 -3 1 0
-2952 -2954 -7621 -3 -2 1 0
-2952 -2955 -7621 -3 1 0
-2950 -2953 -7622 -1 2 0
-2950 -2955 -7622 -1 -3 2 0
-2952 -2953 -7622 -3 -1 2 0
-2952 -2955 -7622 -3 2 0
-2950 -2953 -7623 -1 3 0
-2950 -2954 -7623 -1 -2 3 0
-2951 -2953 -7623 -2 -1 3 0
-2951 -2954 -7623 -2 3 0
-2957 -2960 -7624 -2 1 0
-2957 -2961 -7624 -2 -3 1 0
-2958 -2960 -7624 -3 -2 1 0
-2958 -2961 -7624 -3 1 0
-2956 -2959 -7625 -1 2 0
-2956 -2961 -7625 -1 -3 2 0
-2958 -2959 -7625 -3 -1 2 0
-2958 -2961 -7625 -3 2 0
-2956 -2959 -7626 -1 3 0
-2956 -2960 -7626 -1 -2 3 0
-2957 -2959 -7626 -2 -1 3 0
-2957 -2960 -7626 -2 3 0
-2963 -2966 -7627 -2 1 0
-2963 -2967 -7627 -2 -3 1 0
-2964 -2966 -7627 -3 -2 1 0
-2964 -2967 -7627 -3 1 0
-2962 -2965 -7628 -1 2 0
-2962 -2967 -7628 -1 -3 2 0
-2964 -2965 -7628 -3 -1 2 0
-2964 -2967 -7628 -3 2 0
-2962 -2965 -7629 -1 3 0
-2962 -2966 -7629 -1 -2 3 0
-2963 -2965 -7629 -2 -1 3 0
-2963 -2966 -7629 -2 3 0
-2969 -2972 -7630 -2 1 0
-2969 -2973 -7630 -2 -3 1 0
-2970 -2972 -7630 -3 -2 1 0
-2970 -2973 -7630 -3 1 0
-2968 -2971 -7631 -1 2 0
-2968 -2973 -7631 -1 -3 2 0
-2970 -2971 -7631 -3 -1 2 0
-2970 -2973 -7631 -3 2 0
-2968 -2971 -7632 -1 3 0
-2968 -2972 -7632 -1 -2 3 0
-2969 -2971 -7632 -2 -1 3 0
-2969 -2972 -7632 -2 3 0
-2975 -2978 -7633 -2 1 0
-2975 -2979 -7633 -2 -3 1 0
-2976 -2978 -7633 -3 -2 1 0
-2976 -2979 -7633 -3 1 0
-2974 -2977 -7634 -1 2 0
-2974 -2979 -7634 -1 -3 2 0
-2976 -2977 -7634 -3 -1 2 0
-2976 -2979 -7634 -3 2 0
-2974 -2977 -7635 -1 3 0
-2974 -2978 -7635 -1 -2 3 0
-2975 -2977 -7635 -2 -1 3 0
-2975 -2978 -7635 -2 3 0
-2981 -2984 -7636 -2 1 0
-2981 -2985 -7636 -2 -3 1 0
-2982 -2984 -7636 -3 -2 1 0
-2982 -2985 -7636 -3 1 0
-2980 -2983 -7637 -1 2 0
-2980 -2985 -7637 -1 -3 2 0
-2982 -2983 -7637 -3 -1 2 0
-2982 -2985 -7637 -3 2 0
-2980 -2983 -7638 -1 3 0
-2980 -2984 -7638 -1 -2 3 0
-2981 -2983 -7638 -2 -1 3 0
-2981 -2984 -7638 -2 3 0
-2987 -2990 -7639 -2 1 0
-2987 -2991 -7639 -2 -3 1 0
-2988 -2990 -7639 -3 -2 1 0
-2988 -2991 -7639 -3 1 0
-2986 -2989 -7640 -1 2 0
-2986 -2991 -7640 -1 -3 2 0
-2988 -2989 -7640 -3 -1 2 0
-2988 -2991 -7640 -3 2 0
-2986 -2989 -7641 -1 3 0
-2986 -2990 -7641 -1 -2 3 0
-2987 -2989 -7641 -2 -1 3 0
-2987 -2990 -7641 -2 3 0
-2993 -2996 -7642 -2 1 0
-2993 -2997 -7642 -2 -3 1 0
-2994 -2996 -7642 -3 -2 1 0
-2994 -2997 -7642 -3 1 0
-2992 -2995 -7643 -1 2 0
-2992 -2997 -7643 -1 -3 2 0
-2994 -2995 -7643 -3 -1 2 0
-2994 -2997 -7643 -3 2 0
-2992 -2995 -7644 -1 3 0
-2992 -2996 -7644 -1 -2 3 0
-2993 -2995 -7644 -2 -1 3 0
-2993 -2996 -7644 -2 3 0
-2999 -3002 -7645 -2 1 0
-2999 -3003 -7645 -2 -3 1 0
-3000 -3002 -7645 -3 -2 1 0
-3000 -3003 -7645 -3 1 0
-2998 -3001 -7646 -1 2 0
-2998 -3003 -7646 -1 -3 2 0
-3000 -3001 -7646 -3 -1 2 0
-3000 -3003 -7646 -3 2 0
-2998 -3001 -7647 -1 3 0
-2998 -3002 -7647 -1 -2 3 0
-2999 -3001 -7647 -2 -1 3 0
-2999 -3002 -7647 -2 3 0
-3005 -3008 -7648 -2 1 0
-3005 -3009 -7648 -2 -3 1 0
-3006 -3008 -7648 -3 -2 1 0
-3006 -3009 -7648 -3 1 0
-3004 -3007 -7649 -1 2 0
-3004 -3009 -7649 -1 -3 2 0
-3006 -3007 -7649 -3 -1 2 0
-3006 -3009 -7649 -3 2 0
-3004 -3007 -7650 -1 3 0
-3004 -3008 -7650 -1 -2 3 0
-3005 -3007 -7650 -2 -1 3 0
-3005 -3008 -7650 -2 3 0
-3011 -3014 -7651 -2 1 0
-3011 -3015 -7651 -2 -3 1 0
-3012 -3014 -7651 -3 -2 1 0
-3012 -3015 -7651 -3 1 0
-3010 -3013 -7652 -1 2 0
-3010 -3015 -7652 -1 -3 2 0
-3012 -3013 -7652 -3 -1 2 0
-3012 -3015 -7652 -3 2 0
-3010 -3013 -7653 -1 3 0
-3010 -3014 -7653 -1 -2 3 0
-3011 -3013 -7653 -2 -1 3 0
-3011 -3014 -7653 -2 3 0
-3017 -3020 -7654 -2 1 0
-3017 -3021 -7654 -2 -3 1 0
-3018 -3020 -7654 -3 -2 1 0
-3018 -3021 -7654 -3 1 0
-3016 -3019 -7655 -1 2 0
-3016 -3021 -7655 -1 -3 2 0
-3018 -3019 -7655 -3 -1 2 0
-3018 -3021 -7655 -3 2 0
-3016 -3019 -7656 -1 3 0
-3016 -3020 -7656 -1 -2 3 0
-3017 -3019 -7656 -2 -1 3 0
-3017 -3020 -7656 -2 3 0
-3023 -3026 -7657 -2 1 0
-3023 -3027 -7657 -2 -3 1 0
-3024 -3026 -7657 -3 -2 1 0
-3024 -3027 -7657 -3 1 0
-3022 -3025 -7658 -1 2 0
-3022 -3027 -7658 -1 -3 2 0
-3024 -3025 -7658 -3 -1 2 0
-3024 -3027 -7658 -3 2 0
-3022 -3025 -7659 -1 3 0
-3022 -3026 -7659 -1 -2 3 0
-3023 -3025 -7659 -2 -1 3 0
-3023 -3026 -7659 -2 3 0
-3029 -3032 -7660 -2 1 0
-3029 -3033 -7660 -2 -3 1 0
-3030 -3032 -7660 -3 -2 1 0
-3030 -3033 -7660 -3 1 0
-3028 -3031 -7661 -1 2 0
-3028 -3033 -7661 -1 -3 2 0
-3030 -3031 -7661 -3 -1 2 0
-3030 -3033 -7661 -3 2 0
-3028 -3031 -7662 -1 3 0
-3028 -3032 -7662 -1 -2 3 0
-3029 -3031 -7662 -2 -1 3 0
-3029 -3032 -7662 -2 3 0
-3035 -3038 -7663 -2 1 0
-3035 -3039 -7663 -2 -3 1 0
-3036 -3038 -7663 -3 -2 1 0
-3036 -3039 -7663 -3 1 0
-3034 -3037 -7664 -1 2 0
-3034 -3039 -7664 -1 -3 2 0
-3036 -3037 -7664 -3 -1 2 0
-3036 -3039 -7664 -3 2 0
-3034 -3037 -7665 -1 3 0
-3034 -3038 -7665 -1 -2 3 0
-3035 -3037 -7665 -2 -1 3 0
-3035 -3038 -7665 -2 3 0
-3041 -3044 -7666 -2 1 0
-3041 -3045 -7666 -2 -3 1 0
-3042 -3044 -7666 -3 -2 1 0
-3042 -3045 -7666 -3 1 0
-3040 -3043 -7667 -1 2 0
-3040 -3045 -7667 -1 -3 2 0
-3042 -3043 -7667 -3 -1 2 0
-3042 -3045 -7667 -3 2 0
-3040 -3043 -7668 -1 3 0
-3040 -3044 -7668 -1 -2 3 0
-3041 -3043 -7668 -2 -1 3 0
-3041 -3044 -7668 -2 3 0
-3047 -3050 -7669 -2 1 0
-3047 -3051 -7669 -2 -3 1 0
-3048 -3050 -7669 -3 -2 1 0
-3048 -3051 -7669 -3 1 0
-3046 -3049 -7670 -1 2 0
-3046 -3051 -7670 -1 -3 2 0
-3048 -3049 -7670 -3 -1 2 0
-3048 -3051 -7670 -3 2 0
-3046 -3049 -7671 -1 3 0
-3046 -3050 -7671 -1 -2 3 0
-3047 -3049 -7671 -2 -1 3 0
-3047 -3050 -7671 -2 3 0
-3053 -3056 -7672 -2 1 0
-3053 -3057 -7672 -2 -3 1 0
-3054 -3056 -7672 -3 -2 1 0
-3054 -3057 -7672 -3 1 0
-3052 -3055 -7673 -1 2 0
-3052 -3057 -7673 -1 -3 2 0
-3054 -3055 -7673 -3 -1 2 0
-3054 -3057 -7673 -3 2 0
-3052 -3055 -7674 -1 3 0
-3052 -3056 -7674 -1 -2 3 0
-3053 -3055 -7674 -2 -1 3 0
-3053 -3056 -7674 -2 3 0
-3059 -3062 -7675 -2 1 0
-3059 -3063 -7675 -2 -3 1 0
-3060 -3062 -7675 -3 -2 1 0
-3060 -3063 -7675 -3 1 0
-3058 -3061 -7676 -1 2 0
-3058 -3063 -7676 -1 -3 2 0
-3060 -3061 -7676 -3 -1 2 0
-3060 -3063 -7676 -3 2 0
-3058 -3061 -7677 -1 3 0
-3058 -3062 -7677 -1 -2 3 0
-3059 -3061 -7677 -2 -1 3 0
-3059 -3062 -7677 -2 3 0
-3065 -3068 -7678 -2 1 0
-3065 -3069 -7678 -2 -3 1 0
-3066 -3068 -7678 -3 -2 1 0
-3066 -3069 -7678 -3 1 0
-3064 -3067 -7679 -1 2 0
-3064 -3069 -7679 -1 -3 2 0
-3066 -3067 -7679 -3 -1 2 0
-3066 -3069 -7679 -3 2 0
-3064 -3067 -7680 -1 3 0
-3064 -3068 -7680 -1 -2 3 0
-3065 -3067 -7680 -2 -1 3 0
-3065 -3068 -7680 -2 3 0
-3071 -3074 -7681 -2 1 0
-3071 -3075 -7681 -2 -3 1 0
-3072 -3074 -7681 -3 -2 1 0
-3072 -3075 -7681 -3 1 0
-3070 -3073 -7682 -1 2 0
-3070 -3075 -7682 -1 -3 2 0
-3072 -3073 -7682 -3 -1 2 0
-3072 -3075 -7682 -3 2 0
-3070 -3073 -7683 -1 3 0
-3070 -3074 -7683 -1 -2 3 0
-3071 -3073 -7683 -2 -1 3 0
-3071 -3074 -7683 -2 3 0
-3077 -3080 -7684 -2 1 0
-3077 -3081 -7684 -2 -3 1 0
-3078 -3080 -7684 -3 -2 1 0
-3078 -3081 -7684 -3 1 0
-3076 -3079 -7685 -1 2 0
-3076 -3081 -7685 -1 -3 2 0
-3078 -3079 -7685 -3 -1 2 0
-3078 -3081 -7685 -3 2 0
-3076 -3079 -7686 -1 3 0
-3076 -3080 -7686 -1 -2 3 0
-3077 -3079 -7686 -2 -1 3 0
-3077 -3080 -7686 -2 3 0
-3083 -3086 -7687 -2 1 0
-3083 -3087 -7687 -2 -3 1 0
-3084 -3086 -7687 -3 -2 1 0
-3084 -3087 -7687 -3 1 0
-3082 -3085 -7688 -1 2 0
-3082 -3087 -7688 -1 -3 2 0
-3084 -3085 -7688 -3 -1 2 0
-3084 -3087 -7688 -3 2 0
-3082 -3085 -7689 -1 3 0
-3082 -3086 -7689 -1 -2 3 0
-3083 -3085 -7689 -2 -1 3 0
-3083 -3086 -7689 -2 3 0
-3089 -3092 -7690 -2 1 0
-3089 -3093 -7690 -2 -3 1 0
-3090 -3092 -7690 -3 -2 1 0
-3090 -3093 -7690 -3 1 0
-3088 -3091 -7691 -1 2 0
-3088 -3093 -7691 -1 -3 2 0
-3090 -3091 -7691 -3 -1 2 0
-3090 -3093 -7691 -3 2 0
-3088 -3091 -7692 -1 3 0
-3088 -3092 -7692 -1 -2 3 0
-3089 -3091 -7692 -2 -1 3 0
-3089 -3092 -7692 -2 3 0
-3095 -3098 -7693 -2 1 0
-3095 -3099 -7693 -2 -3 1 0
-3096 -3098 -7693 -3 -2 1 0
-3096 -3099 -7693 -3 1 0
-3094 -3097 -7694 -1 2 0
-3094 -3099 -7694 -1 -3 2 0
-3096 -3097 -7694 -3 -1 2 0
-3096 -3099 -7694 -3 2 0
-3094 -3097 -7695 -1 3 0
-3094 -3098 -7695 -1 -2 3 0
-3095 -3097 -7695 -2 -1 3 0
-3095 -3098 -7695 -2 3 0
-3101 -3104 -7696 -2 1 0
-3101 -3105 -7696 -2 -3 1 0
-3102 -3104 -7696 -3 -2 1 0
-3102 -3105 -7696 -3 1 0
-3100 -3103 -7697 -1 2 0
-3100 -3105 -7697 -1 -3 2 0
-3102 -3103 -7697 -3 -1 2 0
-3102 -3105 -7697 -3 2 0
-3100 -3103 -7698 -1 3 0
-3100 -3104 -7698 -1 -2 3 0
-3101 -3103 -7698 -2 -1 3 0
-3101 -3104 -7698 -2 3 0
-3107 -3110 -7699 -2 1 0
-3107 -3111 -7699 -2 -3 1 0
-3108 -3110 -7699 -3 -2 1 0
-3108 -3111 -7699 -3 1 0
-3106 -3109 -7700 -1 2 0
-3106 -3111 -7700 -1 -3 2 0
-3108 -3109 -7700 -3 -1 2 0
-3108 -3111 -7700 -3 2 0
-3106 -3109 -7701 -1 3 0
-3106 -3110 -7701 -1 -2 3 0
-3107 -3109 -7701 -2 -1 3 0
-3107 -3110 -7701 -2 3 0
-3113 -3116 -7702 -2 1 0
-3113 -3117 -7702 -2 -3 1 0
-3114 -3116 -7702 -3 -2 1 0
-3114 -3117 -7702 -3 1 0
-3112 -3115 -7703 -1 2 0
-3112 -3117 -7703 -1 -3 2 0
-3114 -3115 -7703 -3 -1 2 0
-3114 -3117 -7703 -3 2 0
-3112 -3115 -7704 -1 3 0
-3112 -3116 -7704 -1 -2 3 0
-3113 -3115 -7704 -2 -1 3 0
-3113 -3116 -7704 -2 3 0
-3119 -3122 -7705 -2 1 0
-3119 -3123 -7705 -2 -3 1 0
-3120 -3122 -7705 -3 -2 1 0
-3120 -3123 -7705 -3 1 0
-3118 -3121 -7706 -1 2 0
-3118 -3123 -7706 -1 -3 2 0
-3120 -3121 -7706 -3 -1 2 0
-3120 -3123 -7706 -3 2 0
-3118 -3121 -7707 -1 3 0
-3118 -3122 -7707 -1 -2 3 0
-3119 -3121 -7707 -2 -1 3 0
-3119 -3122 -7707 -2 3 0
-3125 -3128 -7708 -2 1 0
-3125 -3129 -7708 -2 -3 1 0
-3126 -3128 -7708 -3 -2 1 0
-3126 -3129 -7708 -3 1 0
-3124 -3127 -7709 -1 2 0
-3124 -3129 -7709 -1 -3 2 0
-3126 -3127 -7709 -3 -1 2 0
-3126 -3129 -7709 -3 2 0
-3124 -3127 -7710 -1 3 0
-3124 -3128 -7710 -1 -2 3 0
-3125 -3127 -7710 -2 -1 3 0
-3125 -3128 -7710 -2 3 0
-3131 -3134 -7711 -2 1 0
-3131 -3135 -7711 -2 -3 1 0
-3132 -3134 -7711 -3 -2 1 0
-3132 -3135 -7711 -3 1 0
-3130 -3133 -7712 -1 2 0
-3130 -3135 -7712 -1 -3 2 0
-3132 -3133 -7712 -3 -1 2 0
-3132 -3135 -7712 -3 2 0
-3130 -3133 -7713 -1 3 0
-3130 -3134 -7713 -1 -2 3 0
-3131 -3133 -7713 -2 -1 3 0
-3131 -3134 -7713 -2 3 0
-3137 -3140 -7714 -2 1 0
-3137 -3141 -7714 -2 -3 1 0
-3138 -3140 -7714 -3 -2 1 0
-3138 -3141 -7714 -3 1 0
-3136 -3139 -7715 -1 2 0
-3136 -3141 -7715 -1 -3 2 0
-3138 -3139 -7715 -3 -1 2 0
-3138 -3141 -7715 -3 2 0
-3136 -3139 -7716 -1 3 0
-3136 -3140 -7716 -1 -2 3 0
-3137 -3139 -7716 -2 -1 3 0
-3137 -3140 -7716 -2 3 0
-3143 -3146 -7717 -2 1 0
-3143 -3147 -7717 -2 -3 1 0
-3144 -3146 -7717 -3 -2 1 0
-3144 -3147 -7717 -3 1 0
-3142 -3145 -7718 -1 2 0
-3142 -3147 -7718 -1 -3 2 0
-3144 -3145 -7718 -3 -1 2 0
-3144 -3147 -7718 -3 2 0
-3142 -3145 -7719 -1 3 0
-3142 -3146 -7719 -1 -2 3 0
-3143 -3145 -7719 -2 -1 3 0
-3143 -3146 -7719 -2 3 0
-3149 -3152 -7720 -2 1 0
-3149 -3153 -7720 -2 -3 1 0
-3150 -3152 -7720 -3 -2 1 0
-3150 -3153 -7720 -3 1 0
-3148 -3151 -7721 -1 2 0
-3148 -3153 -7721 -1 -3 2 0
-3150 -3151 -7721 -3 -1 2 0
-3150 -3153 -7721 -3 2 0
-3148 -3151 -7722 -1 3 0
-3148 -3152 -7722 -1 -2 3 0
-3149 -3151 -7722 -2 -1 3 0
-3149 -3152 -7722 -2 3 0
-3155 -3158 -7723 -2 1 0
-3155 -3159 -7723 -2 -3 1 0
-3156 -3158 -7723 -3 -2 1 0
-3156 -3159 -7723 -3 1 0
-3154 -3157 -7724 -1 2 0
-3154 -3159 -7724 -1 -3 2 0
-3156 -3157 -7724 -3 -1 2 0
-3156 -3159 -7724 -3 2 0
-3154 -3157 -7725 -1 3 0
-3154 -3158 -7725 -1 -2 3 0
-3155 -3157 -7725 -2 -1 3 0
-3155 -3158 -7725 -2 3 0
-3161 -3164 -7726 -2 1 0
-3161 -3165 -7726 -2 -3 1 0
-3162 -3164 -7726 -3 -2 1 0
-3162 -3165 -7726 -3 1 0
-3160 -3163 -7727 -1 2 0
-3160 -3165 -7727 -1 -3 2 0
-3162 -3163 -7727 -3 -1 2 0
-3162 -3165 -7727 -3 2 0
-3160 -3163 -7728 -1 3 0
-3160 -3164 -7728 -1 -2 3 0
-3161 -3163 -7728 -2 -1 3 0
-3161 -3164 -7728 -2 3 0
-3167 -3170 -7729 -2 1 0
-3167 -3171 -7729 -2 -3 1 0
-3168 -3170 -7729 -3 -2 1 0
-3168 -3171 -7729 -3 1 0
-3166 -3169 -7730 -1 2 0
-3166 -3171 -7730 -1 -3 2 0
-3168 -3169 -7730 -3 -1 2 0
-3168 -3171 -7730 -3 2 0
-3166 -3169 -7731 -1 3 0
-3166 -3170 -7731 -1 -2 3 0
-3167 -3169 -7731 -2 -1 3 0
-3167 -3170 -7731 -2 3 0
-3173 -3176 -7732 -2 1 0
-3173 -3177 -7732 -2 -3 1 0
-3174 -3176 -7732 -3 -2 1 0
-3174 -3177 -7732 -3 1 0
-3172 -3175 -7733 -1 2 0
-3172 -3177 -7733 -1 -3 2 0
-3174 -3175 -7733 -3 -1 2 0
-3174 -3177 -7733 -3 2 0
-3172 -3175 -7734 -1 3 0
-3172 -3176 -7734 -1 -2 3 0
-3173 -3175 -7734 -2 -1 3 0
-3173 -3176 -7734 -2 3 0
-3179 -3182 -7735 -2 1 0
-3179 -3183 -7735 -2 -3 1 0
-3180 -3182 -7735 -3 -2 1 0
-3180 -3183 -7735 -3 1 0
-3178 -3181 -7736 -1 2 0
-3178 -3183 -7736 -1 -3 2 0
-3180 -3181 -7736 -3 -1 2 0
-3180 -3183 -7736 -3 2 0
-3178 -3181 -7737 -1 3 0
-3178 -3182 -7737 -1 -2 3 0
-3179 -3181 -7737 -2 -1 3 0
-3179 -3182 -7737 -2 3 0
-3185 -3188 -7738 -2 1 0
-3185 -3189 -7738 -2 -3 1 0
-3186 -3188 -7738 -3 -2 1 0
-3186 -3189 -7738 -3 1 0
-3184 -3187 -7739 -1 2 0
-3184 -3189 -7739 -1 -3 2 0
-3186 -3187 -7739 -3 -1 2 0
-3186 -3189 -7739 -3 2 0
-3184 -3187 -7740 -1 3 0
-3184 -3188 -7740 -1 -2 3 0
-3185 -3187 -7740 -2 -1 3 0
-3185 -3188 -7740 -2 3 0
-3191 -3194 -7741 -2 1 0
-3191 -3195 -7741 -2 -3 1 0
-3192 -3194 -7741 -3 -2 1 0
-3192 -3195 -7741 -3 1 0
-3190 -3193 -7742 -1 2 0
-3190 -3195 -7742 -1 -3 2 0
-3192 -3193 -7742 -3 -1 2 0
-3192 -3195 -7742 -3 2 0
-3190 -3193 -7743 -1 3 0
-3190 -3194 -7743 -1 -2 3 0
-3191 -3193 -7743 -2 -1 3 0
-3191 -3194 -7743 -2 3 0
-3197 -3200 -7744 -2 1 0
-3197 -3201 -7744 -2 -3 1 0
-3198 -3200 -7744 -3 -2 1 0
-3198 -3201 -7744 -3 1 0
-3196 -3199 -7745 -1 2 0
-3196 -3201 -7745 -1 -3 2 0
-3198 -3199 -7745 -3 -1 2 0
-3198 -3201 -7745 -3 2 0
-3196 -3199 -7746 -1 3 0
-3196 -3200 -7746 -1 -2 3 0
-3197 -3199 -7746 -2 -1 3 0
-3197 -3200 -7746 -2 3 0
-3203 -3206 -7747 -2 1 0
-3203 -3207 -7747 -2 -3 1 0
-3204 -3206 -7747 -3 -2 1 0
-3204 -3207 -7747 -3 1 0
-3202 -3205 -7748 -1 2 0
-3202 -3207 -7748 -1 -3 2 0
-3204 -3205 -7748 -3 -1 2 0
-3204 -3207 -7748 -3 2 0
-3202 -3205 -7749 -1 3 0
-3202 -3206 -7749 -1 -2 3 0
-3203 -3205 -7749 -2 -1 3 0
-3203 -3206 -7749 -2 3 0
-3209 -3212 -7750 -2 1 0
-3209 -3213 -7750 -2 -3 1 0
-3210 -3212 -7750 -3 -2 1 0
-3210 -3213 -7750 -3 1 0
-3208 -3211 -7751 -1 2 0
-3208 -3213 -7751 -1 -3 2 0
-3210 -3211 -7751 -3 -1 2 0
-3210 -3213 -7751 -3 2 0
-3208 -3211 -7752 -1 3 0
-3208 -3212 -7752 -1 -2 3 0
-3209 -3211 -7752 -2 -1 3 0
-3209 -3212 -7752 -2 3 0
-3215 -3218 -7753 -2 1 0
-3215 -3219 -7753 -2 -3 1 0
-3216 -3218 -7753 -3 -2 1 0
-3216 -3219 -7753 -3 1 0
-3214 -3217 -7754 -1 2 0
-3214 -3219 -7754 -1 -3 2 0
-3216 -3217 -7754 -3 -1 2 0
-3216 -3219 -7754 -3 2 0
-3214 -3217 -7755 -1 3 0
-3214 -3218 -7755 -1 -2 3 0
-3215 -3217 -7755 -2 -1 3 0
-3215 -3218 -7755 -2 3 0
-3221 -3224 -7756 -2 1 0
-3221 -3225 -7756 -2 -3 1 0
-3222 -3224 -7756 -3 -2 1 0
-3222 -3225 -7756 -3 1 0
-3220 -3223 -7757 -1 2 0
-3220 -3225 -7757 -1 -3 2 0
-3222 -3223 -7757 -3 -1 2 0
-3222 -3225 -7757 -3 2 0
-3220 -3223 -7758 -1 3 0
-3220 -3224 -7758 -1 -2 3 0
-3221 -3223 -7758 -2 -1 3 0
-3221 -3224 -7758 -2 3 0
-3227 -3230 -7759 -2 1 0
-3227 -3231 -7759 -2 -3 1 0
-3228 -3230 -7759 -3 -2 1 0
-3228 -3231 -7759 -3 1 0
-3226 -3229 -7760 -1 2 0
-3226 -3231 -7760 -1 -3 2 0
-3228 -3229 -7760 -3 -1 2 0
-3228 -3231 -7760 -3 2 0
-3226 -3229 -7761 -1 3 0
-3226 -3230 -7761 -1 -2 3 0
-3227 -3229 -7761 -2 -1 3 0
-3227 -3230 -7761 -2 3 0
-3233 -3236 -7762 -2 1 0
-3233 -3237 -7762 -2 -3 1 0
-3234 -3236 -7762 -3 -2 1 0
-3234 -3237 -7762 -3 1 0
-3232 -3235 -7763 -1 2 0
-3232 -3237 -7763 -1 -3 2 0
-3234 -3235 -7763 -3 -1 2 0
-3234 -3237 -7763 -3 2 0
-3232 -3235 -7764 -1 3 0
-3232 -3236 -7764 -1 -2 3 0
-3233 -3235 -7764 -2 -1 3 0
-3233 -3236 -7764 -2 3 0
-3239 -3242 -7765 -2 1 0
-3239 -3243 -7765 -2 -3 1 0
-3240 -3242 -7765 -3 -2 1 0
-3240 -3243 -7765 -3 1 0
-3238 -3241 -7766 -1 2 0
-3238 -3243 -7766 -1 -3 2 0
-3240 -3241 -7766 -3 -1 2 0
-3240 -3243 -7766 -3 2 0
-3238 -3241 -7767 -1 3 0
-3238 -3242 -7767 -1 -2 3 0
-3239 -3241 -7767 -2 -1 3 0
-3239 -3242 -7767 -2 3 0
-3245 -3248 -7768 -2 1 0
-3245 -3249 -7768 -2 -3 1 0
-3246 -3248 -7768 -3 -2 1 0
-3246 -3249 -7768 -3 1 0
-3244 -3247 -7769 -1 2 0
-3244 -3249 -7769 -1 -3 2 0
-3246 -3247 -7769 -3 -1 2 0
-3246 -3249 -7769 -3 2 0
-3244 -3247 -7770 -1 3 0
-3244 -3248 -7770 -1 -2 3 0
-3245 -3247 -7770 -2 -1 3 0
-3245 -3248 -7770 -2 3 0
-3251 -3254 -7771 -2 1 0
-3251 -3255 -7771 -2 -3 1 0
-3252 -3254 -7771 -3 -2 1 0
-3252 -3255 -7771 -3 1 0
-3250 -3253 -7772 -1 2 0
-3250 -3255 -7772 -1 -3 2 0
-3252 -3253 -7772 -3 -1 2 0
-3252 -3255 -7772 -3 2 0
-3250 -3253 -7773 -1 3 0
-3250 -3254 -7773 -1 -2 3 0
-3251 -3253 -7773 -2 -1 3 0
-3251 -3254 -7773 -2 3 0
-3257 -3260 -7774 -2 1 0
-3257 -3261 -7774 -2 -3 1 0
-3258 -3260 -7774 -3 -2 1 0
-3258 -3261 -7774 -3 1 0
-3256 -3259 -7775 -1 2 0
-3256 -3261 -7775 -1 -3 2 0
-3258 -3259 -7775 -3 -1 2 0
-3258 -3261 -7775 -3 2 0
-3256 -3259 -7776 -1 3 0
-3256 -3260 -7776 -1 -2 3 0
-3257 -3259 -7776 -2 -1 3 0
-3257 -3260 -7776 -2 3 0
-3263 -3266 -7777 -2 1 0
-3263 -3267 -7777 -2 -3 1 0
-3264 -3266 -7777 -3 -2 1 0
-3264 -3267 -7777 -3 1 0
-3262 -3265 -7778 -1 2 0
-3262 -3267 -7778 -1 -3 2 0
-3264 -3265 -7778 -3 -1 2 0
-3264 -3267 -7778 -3 2 0
-3262 -3265 -7779 -1 3 0
-3262 -3266 -7779 -1 -2 3 0
-3263 -3265 -7779 -2 -1 3 0
-3263 -3266 -7779 -2 3 0
-3269 -3272 -7780 -2 1 0
-3269 -3273 -7780 -2 -3 1 0
-3270 -3272 -7780 -3 -2 1 0
-3270 -3273 -7780 -3 1 0
-3268 -3271 -7781 -1 2 0
-3268 -3273 -7781 -1 -3 2 0
-3270 -3271 -7781 -3 -1 2 0
-3270 -3273 -7781 -3 2 0
-3268 -3271 -7782 -1 3 0
-3268 -3272 -7782 -1 -2 3 0
-3269 -3271 -7782 -2 -1 3 0
-3269 -3272 -7782 -2 3 0
-3275 -3278 -7783 -2 1 0
-3275 -3279 -7783 -2 -3 1 0
-3276 -3278 -7783 -3 -2 1 0
-3276 -3279 -7783 -3 1 0
-3274 -3277 -7784 -1 2 0
-3274 -3279 -7784 -1 -3 2 0
-3276 -3277 -7784 -3 -1 2 0
-3276 -3279 -7784 -3 2 0
-3274 -3277 -7785 -1 3 0
-3274 -3278 -7785 -1 -2 3 0
-3275 -3277 -7785 -2 -1 3 0
-3275 -3278 -7785 -2 3 0
-3281 -3284 -7786 -2 1 0
-3281 -3285 -7786 -2 -3 1 0
-3282 -3284 -7786 -3 -2 1 0
-3282 -3285 -7786 -3 1 0
-3280 -3283 -7787 -1 2 0
-3280 -3285 -7787 -1 -3 2 0
-3282 -3283 -7787 -3 -1 2 0
-3282 -3285 -7787 -3 2 0
-3280 -3283 -7788 -1 3 0
-3280 -3284 -7788 -1 -2 3 0
-3281 -3283 -7788 -2 -1 3 0
-3281 -3284 -7788 -2 3 0
-3287 -3290 -7789 -2 1 0
-3287 -3291 -7789 -2 -3 1 0
-3288 -3290 -7789 -3 -2 1 0
-3288 -3291 -7789 -3 1 0
-3286 -3289 -7790 -1 2 0
-3286 -3291 -7790 -1 -3 2 0
-3288 -3289 -7790 -3 -1 2 0
-3288 -3291 -7790 -3 2 0
-3286 -3289 -7791 -1 3 0
-3286 -3290 -7791 -1 -2 3 0
-3287 -3289 -7791 -2 -1 3 0
-3287 -3290 -7791 -2 3 0
-3293 -3296 -7792 -2 1 0
-3293 -3297 -7792 -2 -3 1 0
-3294 -3296 -7792 -3 -2 1 0
-3294 -3297 -7792 -3 1 0
-3292 -3295 -7793 -1 2 0
-3292 -3297 -7793 -1 -3 2 0
-3294 -3295 -7793 -3 -1 2 0
-3294 -3297 -7793 -3 2 0
-3292 -3295 -7794 -1 3 0
-3292 -3296 -7794 -1 -2 3 0
-3293 -3295 -7794 -2 -1 3 0
-3293 -3296 -7794 -2 3 0
-3299 -3302 -7795 -2 1 0
-3299 -3303 -7795 -2 -3 1 0
-3300 -3302 -7795 -3 -2 1 0
-3300 -3303 -7795 -3 1 0
-3298 -3301 -7796 -1 2 0
-3298 -3303 -7796 -1 -3 2 0
-3300 -3301 -7796 -3 -1 2 0
-3300 -3303 -7796 -3 2 0
-3298 -3301 -7797 -1 3 0
-3298 -3302 -7797 -1 -2 3 0
-3299 -3301 -7797 -2 -1 3 0
-3299 -3302 -7797 -2 3 0
-3305 -3308 -7798 -2 1 0
-3305 -3309 -7798 -2 -3 1 0
-3306 -3308 -7798 -3 -2 1 0
-3306 -3309 -7798 -3 1 0
-3304 -3307 -7799 -1 2 0
-3304 -3309 -7799 -1 -3 2 0
-3306 -3307 -7799 -3 -1 2 0
-3306 -3309 -7799 -3 2 0
-3304 -3307 -7800 -1 3 0
-3304 -3308 -7800 -1 -2 3 0
-3305 -3307 -7800 -2 -1 3 0
-3305 -3308 -7800 -2 3 0
-3311 -3314 -7801 -2 1 0
-3311 -3315 -7801 -2 -3 1 0
-3312 -3314 -7801 -3 -2 1 0
-3312 -3315 -7801 -3 1 0
-3310 -3313 -7802 -1 2 0
-3310 -3315 -7802 -1 -3 2 0
-3312 -3313 -7802 -3 -1 2 0
-3312 -3315 -7802 -3 2 0
-3310 -3313 -7803 -1 3 0
-3310 -3314 -7803 -1 -2 3 0
-3311 -3313 -7803 -2 -1 3 0
-3311 -3314 -7803 -2 3 0
-3317 -3320 -7804 -2 1 0
-3317 -3321 -7804 -2 -3 1 0
-3318 -3320 -7804 -3 -2 1 0
-3318 -3321 -7804 -3 1 0
-3316 -3319 -7805 -1 2 0
-3316 -3321 -7805 -1 -3 2 0
-3318 -3319 -7805 -3 -1 2 0
-3318 -3321 -7805 -3 2 0
-3316 -3319 -7806 -1 3 0
-3316 -3320 -7806 -1 -2 3 0
-3317 -3319 -7806 -2 -1 3 0
-3317 -3320 -7806 -2 3 0
-3323 -3326 -7807 -2 1 0
-3323 -3327 -7807 -2 -3 1 0
-3324 -3326 -7807 -3 -2 1 0
-3324 -3327 -7807 -3 1 0
-3322 -3325 -7808 -1 2 0
-3322 -3327 -7808 -1 -3 2 0
-3324 -3325 -7808 -3 -1 2 0
-3324 -3327 -7808 -3 2 0
-3322 -3325 -7809 -1 3 0
-3322 -3326 -7809 -1 -2 3 0
-3323 -3325 -7809 -2 -1 3 0
-3323 -3326 -7809 -2 3 0
-3329 -3332 -7810 -2 1 0
-3329 -3333 -7810 -2 -3 1 0
-3330 -3332 -7810 -3 -2 1 0
-3330 -3333 -7810 -3 1 0
-3328 -3331 -7811 -1 2 0
-3328 -3333 -7811 -1 -3 2 0
-3330 -3331 -7811 -3 -1 2 0
-3330 -3333 -7811 -3 2 0
-3328 -3331 -7812 -1 3 0
-3328 -3332 -7812 -1 -2 3 0
-3329 -3331 -7812 -2 -1 3 0
-3329 -3332 -7812 -2 3 0
-3335 -3338 -7813 -2 1 0
-3335 -3339 -7813 -2 -3 1 0
-3336 -3338 -7813 -3 -2 1 0
-3336 -3339 -7813 -3 1 0
-3334 -3337 -7814 -1 2 0
-3334 -3339 -7814 -1 -3 2 0
-3336 -3337 -7814 -3 -1 2 0
-3336 -3339 -7814 -3 2 0
-3334 -3337 -7815 -1 3 0
-3334 -3338 -7815 -1 -2 3 0
-3335 -3337 -7815 -2 -1 3 0
-3335 -3338 -7815 -2 3 0
-3341 -3344 -7816 -2 1 0
-3341 -3345 -7816 -2 -3 1 0
-3342 -3344 -7816 -3 -2 1 0
-3342 -3345 -7816 -3 1 0
-3340 -3343 -7817 -1 2 0
-3340 -3345 -7817 -1 -3 2 0
-3342 -3343 -7817 -3 -1 2 0
-3342 -3345 -7817 -3 2 0
-3340 -3343 -7818 -1 3 0
-3340 -3344 -7818 -1 -2 3 0
-3341 -3343 -7818 -2 -1 3 0
-3341 -3344 -7818 -2 3 0
-3347 -3350 -7819 -2 1 0
-3347 -3351 -7819 -2 -3 1 0
-3348 -3350 -7819 -3 -2 1 0
-3348 -3351 -7819 -3 1 0
-3346 -3349 -7820 -1 2 0
-3346 -3351 -7820 -1 -3 2 0
-3348 -3349 -7820 -3 -1 2 0
-3348 -3351 -7820 -3 2 0
-3346 -3349 -7821 -1 3 0
-3346 -3350 -7821 -1 -2 3 0
-3347 -3349 -7821 -2 -1 3 0
-3347 -3350 -7821 -2 3 0
-3353 -3356 -7822 -2 1 0
-3353 -3357 -7822 -2 -3 1 0
-3354 -3356 -7822 -3 -2 1 0
-3354 -3357 -7822 -3 1 0
-3352 -3355 -7823 -1 2 0
-3352 -3357 -7823 -1 -3 2 0
-3354 -3355 -7823 -3 -1 2 0
-3354 -3357 -7823 -3 2 0
-3352 -3355 -7824 -1 3 0
-3352 -3356 -7824 -1 -2 3 0
-3353 -3355 -7824 -2 -1 3 0
-3353 -3356 -7824 -2 3 0
-3359 -3362 -7825 -2 1 0
-3359 -3363 -7825 -2 -3 1 0
-3360 -3362 -7825 -3 -2 1 0
-3360 -3363 -7825 -3 1 0
-3358 -3361 -7826 -1 2 0
-3358 -3363 -7826 -1 -3 2 0
-3360 -3361 -7826 -3 -1 2 0
-3360 -3363 -7826 -3 2 0
-3358 -3361 -7827 -1 3 0
-3358 -3362 -7827 -1 -2 3 0
-3359 -3361 -7827 -2 -1 3 0
-3359 -3362 -7827 -2 3 0
-3365 -3368 -7828 -2 1 0
-3365 -3369 -7828 -2 -3 1 0
-3366 -3368 -7828 -3 -2 1 0
-3366 -3369 -7828 -3 1 0
-3364 -3367 -7829 -1 2 0
-3364 -3369 -7829 -1 -3 2 0
-3366 -3367 -7829 -3 -1 2 0
-3366 -3369 -7829 -3 2 0
-3364 -3367 -7830 -1 3 0
-3364 -3368 -7830 -1 -2 3 0
-3365 -3367 -7830 -2 -1 3 0
-3365 -3368 -7830 -2 3 0
-3371 -3374 -7831 -2 1 0
-3371 -3375 -7831 -2 -3 1 0
-3372 -3374 -7831 -3 -2 1 0
-3372 -3375 -7831 -3 1 0
-3370 -3373 -7832 -1 2 0
-3370 -3375 -7832 -1 -3 2 0
-3372 -3373 -7832 -3 -1 2 0
-3372 -3375 -7832 -3 2 0
-3370 -3373 -7833 -1 3 0
-3370 -3374 -7833 -1 -2 3 0
-3371 -3373 -7833 -2 -1 3 0
-3371 -3374 -7833 -2 3 0
-3377 -3380 -7834 -2 1 0
-3377 -3381 -7834 -2 -3 1 0
-3378 -3380 -7834 -3 -2 1 0
-3378 -3381 -7834 -3 1 0
-3376 -3379 -7835 -1 2 0
-3376 -3381 -7835 -1 -3 2 0
-3378 -3379 -7835 -3 -1 2 0
-3378 -3381 -7835 -3 2 0
-3376 -3379 -7836 -1 3 0
-3376 -3380 -7836 -1 -2 3 0
-3377 -3379 -7836 -2 -1 3 0
-3377 -3380 -7836 -2 3 0
-3383 -3386 -7837 -2 1 0
-3383 -3387 -7837 -2 -3 1 0
-3384 -3386 -7837 -3 -2 1 0
-3384 -3387 -7837 -3 1 0
-3382 -3385 -7838 -1 2 0
-3382 -3387 -7838 -1 -3 2 0
-3384 -3385 -7838 -3 -1 2 0
-3384 -3387 -7838 -3 2 0
-3382 -3385 -7839 -1 3 0
-3382 -3386 -7839 -1 -2 3 0
-3383 -3385 -7839 -2 -1 3 0
-3383 -3386 -7839 -2 3 0
-3389 -3392 -7840 -2 1 0
-3389 -3393 -7840 -2 -3 1 0
-3390 -3392 -7840 -3 -2 1 0
-3390 -3393 -7840 -3 1 0
-3388 -3391 -7841 -1 2 0
-3388 -3393 -7841 -1 -3 2 0
-3390 -3391 -7841 -3 -1 2 0
-3390 -3393 -7841 -3 2 0
-3388 -3391 -7842 -1 3 0
-3388 -3392 -7842 -1 -2 3 0
-3389 -3391 -7842 -2 -1 3 0
-3389 -3392 -7842 -2 3 0
-3395 -3398 -7843 -2 1 0
-3395 -3399 -7843 -2 -3 1 0
-3396 -3398 -7843 -3 -2 1 0
-3396 -3399 -7843 -3 1 0
-3394 -3397 -7844 -1 2 0
-3394 -3399 -7844 -1 -3 2 0
-3396 -3397 -7844 -3 -1 2 0
-3396 -3399 -7844 -3 2 0
-3394 -3397 -7845 -1 3 0
-3394 -3398 -7845 -1 -2 3 0
-3395 -3397 -7845 -2 -1 3 0
-3395 -3398 -7845 -2 3 0
-3401 -3404 -7846 -2 1 0
-3401 -3405 -7846 -2 -3 1 0
-3402 -3404 -7846 -3 -2 1 0
-3402 -3405 -7846 -3 1 0
-3400 -3403 -7847 -1 2 0
-3400 -3405 -7847 -1 -3 2 0
-3402 -3403 -7847 -3 -1 2 0
-3402 -3405 -7847 -3 2 0
-3400 -3403 -7848 -1 3 0
-3400 -3404 -7848 -1 -2 3 0
-3401 -3403 -7848 -2 -1 3 0
-3401 -3404 -7848 -2 3 0
-3407 -3410 -7849 -2 1 0
-3407 -3411 -7849 -2 -3 1 0
-3408 -3410 -7849 -3 -2 1 0
-3408 -3411 -7849 -3 1 0
-3406 -3409 -7850 -1 2 0
-3406 -3411 -7850 -1 -3 2 0
-3408 -3409 -7850 -3 -1 2 0
-3408 -3411 -7850 -3 2 0
-3406 -3409 -7851 -1 3 0
-3406 -3410 -7851 -1 -2 3 0
-3407 -3409 -7851 -2 -1 3 0
-3407 -3410 -7851 -2 3 0
-3413 -3416 -7852 -2 1 0
-3413 -3417 -7852 -2 -3 1 0
-3414 -3416 -7852 -3 -2 1 0
-3414 -3417 -7852 -3 1 0
-3412 -3415 -7853 -1 2 0
-3412 -3417 -7853 -1 -3 2 0
-3414 -3415 -7853 -3 -1 2 0
-3414 -3417 -7853 -3 2 0
-3412 -3415 -7854 -1 3 0
-3412 -3416 -7854 -1 -2 3 0
-3413 -3415 -7854 -2 -1 3 0
-3413 -3416 -7854 -2 3 0
-3419 -3422 -7855 -2 1 0
-3419 -3423 -7855 -2 -3 1 0
-3420 -3422 -7855 -3 -2 1 0
-3420 -3423 -7855 -3 1 0
-3418 -3421 -7856 -1 2 0
-3418 -3423 -7856 -1 -3 2 0
-3420 -3421 -7856 -3 -1 2 0
-3420 -3423 -7856 -3 2 0
-3418 -3421 -7857 -1 3 0
-3418 -3422 -7857 -1 -2 3 0
-3419 -3421 -7857 -2 -1 3 0
-3419 -3422 -7857 -2 3 0
-3425 -3428 -7858 -2 1 0
-3425 -3429 -7858 -2 -3 1 0
-3426 -3428 -7858 -3 -2 1 0
-3426 -3429 -7858 -3 1 0
-3424 -3427 -7859 -1 2 0
-3424 -3429 -7859 -1 -3 2 0
-3426 -3427 -7859 -3 -1 2 0
-3426 -3429 -7859 -3 2 0
-3424 -3427 -7860 -1 3 0
-3424 -3428 -7860 -1 -2 3 0
-3425 -3427 -7860 -2 -1 3 0
-3425 -3428 -7860 -2 3 0
-3431 -3434 -7861 -2 1 0
-3431 -3435 -7861 -2 -3 1 0
-3432 -3434 -7861 -3 -2 1 0
-3432 -3435 -7861 -3 1 0
-3430 -3433 -7862 -1 2 0
-3430 -3435 -7862 -1 -3 2 0
-3432 -3433 -7862 -3 -1 2 0
-3432 -3435 -7862 -3 2 0
-3430 -3433 -7863 -1 3 0
-3430 -3434 -7863 -1 -2 3 0
-3431 -3433 -7863 -2 -1 3 0
-3431 -3434 -7863 -2 3 0
-3437 -3440 -7864 -2 1 0
-3437 -3441 -7864 -2 -3 1 0
-3438 -3440 -7864 -3 -2 1 0
-3438 -3441 -7864 -3 1 0
-3436 -3439 -7865 -1 2 0
-3436 -3441 -7865 -1 -3 2 0
-3438 -3439 -7865 -3 -1 2 0
-3438 -3441 -7865 -3 2 0
-3436 -3439 -7866 -1 3 0
-3436 -3440 -7866 -1 -2 3 0
-3437 -3439 -7866 -2 -1 3 0
-3437 -3440 -7866 -2 3 0
-3443 -3446 -7867 -2 1 0
-3443 -3447 -7867 -2 -3 1 0
-3444 -3446 -7867 -3 -2 1 0
-3444 -3447 -7867 -3 1 0
-3442 -3445 -7868 -1 2 0
-3442 -3447 -7868 -1 -3 2 0
-3444 -3445 -7868 -3 -1 2 0
-3444 -3447 -7868 -3 2 0
-3442 -3445 -7869 -1 3 0
-3442 -3446 -7869 -1 -2 3 0
-3443 -3445 -7869 -2 -1 3 0
-3443 -3446 -7869 -2 3 0
-3449 -3452 -7870 -2 1 0
-3449 -3453 -7870 -2 -3 1 0
-3450 -3452 -7870 -3 -2 1 0
-3450 -3453 -7870 -3 1 0
-3448 -3451 -7871 -1 2 0
-3448 -3453 -7871 -1 -3 2 0
-3450 -3451 -7871 -3 -1 2 0
-3450 -3453 -7871 -3 2 0
-3448 -3451 -7872 -1 3 0
-3448 -3452 -7872 -1 -2 3 0
-3449 -3451 -7872 -2 -1 3 0
-3449 -3452 -7872 -2 3 0
-3455 -3458 -7873 -2 1 0
-3455 -3459 -7873 -2 -3 1 0
-3456 -3458 -7873 -3 -2 1 0
-3456 -3459 -7873 -3 1 0
-3454 -3457 -7874 -1 2 0
-3454 -3459 -7874 -1 -3 2 0
-3456 -3457 -7874 -3 -1 2 0
-3456 -3459 -7874 -3 2 0
-3454 -3457 -7875 -1 3 0
-3454 -3458 -7875 -1 -2 3 0
-3455 -3457 -7875 -2 -1 3 0
-3455 -3458 -7875 -2 3 0
-3461 -3464 -7876 -2 1 0
-3461 -3465 -7876 -2 -3 1 0
-3462 -3464 -7876 -3 -2 1 0
-3462 -3465 -7876 -3 1 0
-3460 -3463 -7877 -1 2 0
-3460 -3465 -7877 -1 -3 2 0
-3462 -3463 -7877 -3 -1 2 0
-3462 -3465 -7877 -3 2 0
-3460 -3463 -7878 -1 3 0
-3460 -3464 -7878 -1 -2 3 0
-3461 -3463 -7878 -2 -1 3 0
-3461 -3464 -7878 -2 3 0
-3467 -3470 -7879 -2 1 0
-3467 -3471 -7879 -2 -3 1 0
-3468 -3470 -7879 -3 -2 1 0
-3468 -3471 -7879 -3 1 0
-3466 -3469 -7880 -1 2 0
-3466 -3471 -7880 -1 -3 2 0
-3468 -3469 -7880 -3 -1 2 0
-3468 -3471 -7880 -3 2 0
-3466 -3469 -7881 -1 3 0
-3466 -3470 -7881 -1 -2 3 0
-3467 -3469 -7881 -2 -1 3 0
-3467 -3470 -7881 -2 3 0
-3473 -3476 -7882 -2 1 0
-3473 -3477 -7882 -2 -3 1 0
-3474 -3476 -7882 -3 -2 1 0
-3474 -3477 -7882 -3 1 0
-3472 -3475 -7883 -1 2 0
-3472 -3477 -7883 -1 -3 2 0
-3474 -3475 -7883 -3 -1 2 0
-3474 -3477 -7883 -3 2 0
-3472 -3475 -7884 -1 3 0
-3472 -3476 -7884 -1 -2 3 0
-3473 -3475 -7884 -2 -1 3 0
-3473 -3476 -7884 -2 3 0
-3479 -3482 -7885 -2 1 0
-3479 -3483 -7885 -2 -3 1 0
-3480 -3482 -7885 -3 -2 1 0
-3480 -3483 -7885 -3 1 0
-3478 -3481 -7886 -1 2 0
-3478 -3483 -7886 -1 -3 2 0
-3480 -3481 -7886 -3 -1 2 0
-3480 -3483 -7886 -3 2 0
-3478 -3481 -7887 -1 3 0
-3478 -3482 -7887 -1 -2 3 0
-3479 -3481 -7887 -2 -1 3 0
-3479 -3482 -7887 -2 3 0
-3485 -3488 -7888 -2 1 0
-3485 -3489 -7888 -2 -3 1 0
-3486 -3488 -7888 -3 -2 1 0
-3486 -3489 -7888 -3 1 0
-3484 -3487 -7889 -1 2 0
-3484 -3489 -7889 -1 -3 2 0
-3486 -3487 -7889 -3 -1 2 0
-3486 -3489 -7889 -3 2 0
-3484 -3487 -7890 -1 3 0
-3484 -3488 -7890 -1 -2 3 0
-3485 -3487 -7890 -2 -1 3 0
-3485 -3488 -7890 -2 3 0
-3491 -3494 -7891 -2 1 0
-3491 -3495 -7891 -2 -3 1 0
-3492 -3494 -7891 -3 -2 1 0
-3492 -3495 -7891 -3 1 0
-3490 -3493 -7892 -1 2 0
-3490 -3495 -7892 -1 -3 2 0
-3492 -3493 -7892 -3 -1 2 0
-3492 -3495 -7892 -3 2 0
-3490 -3493 -7893 -1 3 0
-3490 -3494 -7893 -1 -2 3 0
-3491 -3493 -7893 -2 -1 3 0
-3491 -3494 -7893 -2 3 0
-3497 -3500 -7894 -2 1 0
-3497 -3501 -7894 -2 -3 1 0
-3498 -3500 -7894 -3 -2 1 0
-3498 -3501 -7894 -3 1 0
-3496 -3499 -7895 -1 2 0
-3496 -3501 -7895 -1 -3 2 0
-3498 -3499 -7895 -3 -1 2 0
-3498 -3501 -7895 -3 2 0
-3496 -3499 -7896 -1 3 0
-3496 -3500 -7896 -1 -2 3 0
-3497 -3499 -7896 -2 -1 3 0
-3497 -3500 -7896 -2 3 0
-3503 -3506 -7897 -2 1 0
-3503 -3507 -7897 -2 -3 1 0
-3504 -3506 -7897 -3 -2 1 0
-3504 -3507 -7897 -3 1 0
-3502 -3505 -7898 -1 2 0
-3502 -3507 -7898 -1 -3 2 0
-3504 -3505 -7898 -3 -1 2 0
-3504 -3507 -7898 -3 2 0
-3502 -3505 -7899 -1 3 0
-3502 -3506 -7899 -1 -2 3 0
-3503 -3505 -7899 -2 -1 3 0
-3503 -3506 -7899 -2 3 0
-3509 -3512 -7900 -2 1 0
-3509 -3513 -7900 -2 -3 1 0
-3510 -3512 -7900 -3 -2 1 0
-3510 -3513 -7900 -3 1 0
-3508 -3511 -7901 -1 2 0
-3508 -3513 -7901 -1 -3 2 0
-3510 -3511 -7901 -3 -1 2 0
-3510 -3513 -7901 -3 2 0
-3508 -3511 -7902 -1 3 0
-3508 -3512 -7902 -1 -2 3 0
-3509 -3511 -7902 -2 -1 3 0
-3509 -3512 -7902 -2 3 0
-3515 -3518 -7903 -2 1 0
-3515 -3519 -7903 -2 -3 1 0
-3516 -3518 -7903 -3 -2 1 0
-3516 -3519 -7903 -3 1 0
-3514 -3517 -7904 -1 2 0
-3514 -3519 -7904 -1 -3 2 0
-3516 -3517 -7904 -3 -1 2 0
-3516 -3519 -7904 -3 2 0
-3514 -3517 -7905 -1 3 0
-3514 -3518 -7905 -1 -2 3 0
-3515 -3517 -7905 -2 -1 3 0
-3515 -3518 -7905 -2 3 0
-3521 -3524 -7906 -2 1 0
-3521 -3525 -7906 -2 -3 1 0
-3522 -3524 -7906 -3 -2 1 0
-3522 -3525 -7906 -3 1 0
-3520 -3523 -7907 -1 2 0
-3520 -3525 -7907 -1 -3 2 0
-3522 -3523 -7907 -3 -1 2 0
-3522 -3525 -7907 -3 2 0
-3520 -3523 -7908 -1 3 0
-3520 -3524 -7908 -1 -2 3 0
-3521 -3523 -7908 -2 -1 3 0
-3521 -3524 -7908 -2 3 0
-3527 -3530 -7909 -2 1 0
-3527 -3531 -7909 -2 -3 1 0
-3528 -3530 -7909 -3 -2 1 0
-3528 -3531 -7909 -3 1 0
-3526 -3529 -7910 -1 2 0
-3526 -3531 -7910 -1 -3 2 0
-3528 -3529 -7910 -3 -1 2 0
-3528 -3531 -7910 -3 2 0
-3526 -3529 -7911 -1 3 0
-3526 -3530 -7911 -1 -2 3 0
-3527 -3529 -7911 -2 -1 3 0
-3527 -3530 -7911 -2 3 0
-3533 -3536 -7912 -2 1 0
-3533 -3537 -7912 -2 -3 1 0
-3534 -3536 -7912 -3 -2 1 0
-3534 -3537 -7912 -3 1 0
-3532 -3535 -7913 -1 2 0
-3532 -3537 -7913 -1 -3 2 0
-3534 -3535 -7913 -3 -1 2 0
-3534 -3537 -7913 -3 2 0
-3532 -3535 -7914 -1 3 0
-3532 -3536 -7914 -1 -2 3 0
-3533 -3535 -7914 -2 -1 3 0
-3533 -3536 -7914 -2 3 0
-3539 -3542 -7915 -2 1 0
-3539 -3543 -7915 -2 -3 1 0
-3540 -3542 -7915 -3 -2 1 0
-3540 -3543 -7915 -3 1 0
-3538 -3541 -7916 -1 2 0
-3538 -3543 -7916 -1 -3 2 0
-3540 -3541 -7916 -3 -1 2 0
-3540 -3543 -7916 -3 2 0
-3538 -3541 -7917 -1 3 0
-3538 -3542 -7917 -1 -2 3 0
-3539 -3541 -7917 -2 -1 3 0
-3539 -3542 -7917 -2 3 0
-3545 -3548 -7918 -2 1 0
-3545 -3549 -7918 -2 -3 1 0
-3546 -3548 -7918 -3 -2 1 0
-3546 -3549 -7918 -3 1 0
-3544 -3547 -7919 -1 2 0
-3544 -3549 -7919 -1 -3 2 0
-3546 -3547 -7919 -3 -1 2 0
-3546 -3549 -7919 -3 2 0
-3544 -3547 -7920 -1 3 0
-3544 -3548 -7920 -1 -2 3 0
-3545 -3547 -7920 -2 -1 3 0
-3545 -3548 -7920 -2 3 0
-3551 -3554 -7921 -2 1 0
-3551 -3555 -7921 -2 -3 1 0
-3552 -3554 -7921 -3 -2 1 0
-3552 -3555 -7921 -3 1 0
-3550 -3553 -7922 -1 2 0
-3550 -3555 -7922 -1 -3 2 0
-3552 -3553 -7922 -3 -1 2 0
-3552 -3555 -7922 -3 2 0
-3550 -3553 -7923 -1 3 0
-3550 -3554 -7923 -1 -2 3 0
-3551 -3553 -7923 -2 -1 3 0
-3551 -3554 -7923 -2 3 0
-3557 -3560 -7924 -2 1 0
-3557 -3561 -7924 -2 -3 1 0
-3558 -3560 -7924 -3 -2 1 0
-3558 -3561 -7924 -3 1 0
-3556 -3559 -7925 -1 2 0
-3556 -3561 -7925 -1 -3 2 0
-3558 -3559 -7925 -3 -1 2 0
-3558 -3561 -7925 -3 2 0
-3556 -3559 -7926 -1 3 0
-3556 -3560 -7926 -1 -2 3 0
-3557 -3559 -7926 -2 -1 3 0
-3557 -3560 -7926 -2 3 0
-3563 -3566 -7927 -2 1 0
-3563 -3567 -7927 -2 -3 1 0
-3564 -3566 -7927 -3 -2 1 0
-3564 -3567 -7927 -3 1 0
-3562 -3565 -7928 -1 2 0
-3562 -3567 -7928 -1 -3 2 0
-3564 -3565 -7928 -3 -1 2 0
-3564 -3567 -7928 -3 2 0
-3562 -3565 -7929 -1 3 0
-3562 -3566 -7929 -1 -2 3 0
-3563 -3565 -7929 -2 -1 3 0
-3563 -3566 -7929 -2 3 0
-3569 -3572 -7930 -2 1 0
-3569 -3573 -7930 -2 -3 1 0
-3570 -3572 -7930 -3 -2 1 0
-3570 -3573 -7930 -3 1 0
-3568 -3571 -7931 -1 2 0
-3568 -3573 -7931 -1 -3 2 0
-3570 -3571 -7931 -3 -1 2 0
-3570 -3573 -7931 -3 2 0
-3568 -3571 -7932 -1 3 0
-3568 -3572 -7932 -1 -2 3 0
-3569 -3571 -7932 -2 -1 3 0
-3569 -3572 -7932 -2 3 0
-3575 -3578 -7933 -2 1 0
-3575 -3579 -7933 -2 -3 1 0
-3576 -3578 -7933 -3 -2 1 0
-3576 -3579 -7933 -3 1 0
-3574 -3577 -7934 -1 2 0
-3574 -3579 -7934 -1 -3 2 0
-3576 -3577 -7934 -3 -1 2 0
-3576 -3579 -7934 -3 2 0
-3574 -3577 -7935 -1 3 0
-3574 -3578 -7935 -1 -2 3 0
-3575 -3577 -7935 -2 -1 3 0
-3575 -3578 -7935 -2 3 0
-3581 -3584 -7936 -2 1 0
-3581 -3585 -7936 -2 -3 1 0
-3582 -3584 -7936 -3 -2 1 0
-3582 -3585 -7936 -3 1 0
-3580 -3583 -7937 -1 2 0
-3580 -3585 -7937 -1 -3 2 0
-3582 -3583 -7937 -3 -1 2 0
-3582 -3585 -7937 -3 2 0
-3580 -3583 -7938 -1 3 0
-3580 -3584 -7938 -1 -2 3 0
-3581 -3583 -7938 -2 -1 3 0
-3581 -3584 -7938 -2 3 0
-3587 -3590 -7939 -2 1 0
-3587 -3591 -7939 -2 -3 1 0
-3588 -3590 -7939 -3 -2 1 0
-3588 -3591 -7939 -3 1 0
-3586 -3589 -7940 -1 2 0
-3586 -3591 -7940 -1 -3 2 0
-3588 -3589 -7940 -3 -1 2 0
-3588 -3591 -7940 -3 2 0
-3586 -3589 -7941 -1 3 0
-3586 -3590 -7941 -1 -2 3 0
-3587 -3589 -7941 -2 -1 3 0
-3587 -3590 -7941 -2 3 0
-3593 -3596 -7942 -2 1 0
-3593 -3597 -7942 -2 -3 1 0
-3594 -3596 -7942 -3 -2 1 0
-3594 -3597 -7942 -3 1 0
-3592 -3595 -7943 -1 2 0
-3592 -3597 -7943 -1 -3 2 0
-3594 -3595 -7943 -3 -1 2 0
-3594 -3597 -7943 -3 2 0
-3592 -3595 -7944 -1 3 0
-3592 -3596 -7944 -1 -2 3 0
-3593 -3595 -7944 -2 -1 3 0
-3593 -3596 -7944 -2 3 0
-3599 -3602 -7945 -2 1 0
-3599 -3603 -7945 -2 -3 1 0
-3600 -3602 -7945 -3 -2 1 0
-3600 -3603 -7945 -3 1 0
-3598 -3601 -7946 -1 2 0
-3598 -3603 -7946 -1 -3 2 0
-3600 -3601 -7946 -3 -1 2 0
-3600 -3603 -7946 -3 2 0
-3598 -3601 -7947 -1 3 0
-3598 -3602 -7947 -1 -2 3 0
-3599 -3601 -7947 -2 -1 3 0
-3599 -3602 -7947 -2 3 0
-3605 -3608 -7948 -2 1 0
-3605 -3609 -7948 -2 -3 1 0
-3606 -3608 -7948 -3 -2 1 0
-3606 -3609 -7948 -3 1 0
-3604 -3607 -7949 -1 2 0
-3604 -3609 -7949 -1 -3 2 0
-3606 -3607 -7949 -3 -1 2 0
-3606 -3609 -7949 -3 2 0
-3604 -3607 -7950 -1 3 0
-3604 -3608 -7950 -1 -2 3 0
-3605 -3607 -7950 -2 -1 3 0
-3605 -3608 -7950 -2 3 0
-3611 -3614 -7951 -2 1 0
-3611 -3615 -7951 -2 -3 1 0
-3612 -3614 -7951 -3 -2 1 0
-3612 -3615 -7951 -3 1 0
-3610 -3613 -7952 -1 2 0
-3610 -3615 -7952 -1 -3 2 0
-3612 -3613 -7952 -3 -1 2 0
-3612 -3615 -7952 -3 2 0
-3610 -3613 -7953 -1 3 0
-3610 -3614 -7953 -1 -2 3 0
-3611 -3613 -7953 -2 -1 3 0
-3611 -3614 -7953 -2 3 0
-3617 -3620 -7954 -2 1 0
-3617 -3621 -7954 -2 -3 1 0
-3618 -3620 -7954 -3 -2 1 0
-3618 -3621 -7954 -3 1 0
-3616 -3619 -7955 -1 2 0
-3616 -3621 -7955 -1 -3 2 0
-3618 -3619 -7955 -3 -1 2 0
-3618 -3621 -7955 -3 2 0
-3616 -3619 -7956 -1 3 0
-3616 -3620 -7956 -1 -2 3 0
-3617 -3619 -7956 -2 -1 3 0
-3617 -3620 -7956 -2 3 0
-3623 -3626 -7957 -2 1 0
-3623 -3627 -7957 -2 -3 1 0
-3624 -3626 -7957 -3 -2 1 0
-3624 -3627 -7957 -3 1 0
-3622 -3625 -7958 -1 2 0
-3622 -3627 -7958 -1 -3 2 0
-3624 -3625 -7958 -3 -1 2 0
-3624 -3627 -7958 -3 2 0
-3622 -3625 -7959 -1 3 0
-3622 -3626 -7959 -1 -2 3 0
-3623 -3625 -7959 -2 -1 3 0
-3623 -3626 -7959 -2 3 0
-3629 -3632 -7960 -2 1 0
-3629 -3633 -7960 -2 -3 1 0
-3630 -3632 -7960 -3 -2 1 0
-3630 -3633 -7960 -3 1 0
-3628 -3631 -7961 -1 2 0
-3628 -3633 -7961 -1 -3 2 0
-3630 -3631 -7961 -3 -1 2 0
-3630 -3633 -7961 -3 2 0
-3628 -3631 -7962 -1 3 0
-3628 -3632 -7962 -1 -2 3 0
-3629 -3631 -7962 -2 -1 3 0
-3629 -3632 -7962 -2 3 0
-3635 -3638 -7963 -2 1 0
-3635 -3639 -7963 -2 -3 1 0
-3636 -3638 -7963 -3 -2 1 0
-3636 -3639 -7963 -3 1 0
-3634 -3637 -7964 -1 2 0
-3634 -3639 -7964 -1 -3 2 0
-3636 -3637 -7964 -3 -1 2 0
-3636 -3639 -7964 -3 2 0
-3634 -3637 -7965 -1 3 0
-3634 -3638 -7965 -1 -2 3 0
-3635 -3637 -7965 -2 -1 3 0
-3635 -3638 -7965 -2 3 0
-3641 -3644 -7966 -2 1 0
-3641 -3645 -7966 -2 -3 1 0
-3642 -3644 -7966 -3 -2 1 0
-3642 -3645 -7966 -3 1 0
-3640 -3643 -7967 -1 2 0
-3640 -3645 -7967 -1 -3 2 0
-3642 -3643 -7967 -3 -1 2 0
-3642 -3645 -7967 -3 2 0
-3640 -3643 -7968 -1 3 0
-3640 -3644 -7968 -1 -2 3 0
-3641 -3643 -7968 -2 -1 3 0
-3641 -3644 -7968 -2 3 0
-3647 -3650 -7969 -2 1 0
-3647 -3651 -7969 -2 -3 1 0
-3648 -3650 -7969 -3 -2 1 0
-3648 -3651 -7969 -3 1 0
-3646 -3649 -7970 -1 2 0
-3646 -3651 -7970 -1 -3 2 0
-3648 -3649 -7970 -3 -1 2 0
-3648 -3651 -7970 -3 2 0
-3646 -3649 -7971 -1 3 0
-3646 -3650 -7971 -1 -2 3 0
-3647 -3649 -7971 -2 -1 3 0
-3647 -3650 -7971 -2 3 0
-3653 -3656 -7972 -2 1 0
-3653 -3657 -7972 -2 -3 1 0
-3654 -3656 -7972 -3 -2 1 0
-3654 -3657 -7972 -3 1 0
-3652 -3655 -7973 -1 2 0
-3652 -3657 -7973 -1 -3 2 0
-3654 -3655 -7973 -3 -1 2 0
-3654 -3657 -7973 -3 2 0
-3652 -3655 -7974 -1 3 0
-3652 -3656 -7974 -1 -2 3 0
-3653 -3655 -7974 -2 -1 3 0
-3653 -3656 -7974 -2 3 0
-3659 -3662 -7975 -2 1 0
-3659 -3663 -7975 -2 -3 1 0
-3660 -3662 -7975 -3 -2 1 0
-3660 -3663 -7975 -3 1 0
-3658 -3661 -7976 -1 2 0
-3658 -3663 -7976 -1 -3 2 0
-3660 -3661 -7976 -3 -1 2 0
-3660 -3663 -7976 -3 2 0
-3658 -3661 -7977 -1 3 0
-3658 -3662 -7977 -1 -2 3 0
-3659 -3661 -7977 -2 -1 3 0
-3659 -3662 -7977 -2 3 0
-3665 -3668 -7978 -2 1 0
-3665 -3669 -7978 -2 -3 1 0
-3666 -3668 -7978 -3 -2 1 0
-3666 -3669 -7978 -3 1 0
-3664 -3667 -7979 -1 2 0
-3664 -3669 -7979 -1 -3 2 0
-3666 -3667 -7979 -3 -1 2 0
-3666 -3669 -7979 -3 2 0
-3664 -3667 -7980 -1 3 0
-3664 -3668 -7980 -1 -2 3 0
-3665 -3667 -7980 -2 -1 3 0
-3665 -3668 -7980 -2 3 0
-3671 -3674 -7981 -2 1 0
-3671 -3675 -7981 -2 -3 1 0
-3672 -3674 -7981 -3 -2 1 0
-3672 -3675 -7981 -3 1 0
-3670 -3673 -7982 -1 2 0
-3670 -3675 -7982 -1 -3 2 0
-3672 -3673 -7982 -3 -1 2 0
-3672 -3675 -7982 -3 2 0
-3670 -3673 -7983 -1 3 0
-3670 -3674 -7983 -1 -2 3 0
-3671 -3673 -7983 -2 -1 3 0
-3671 -3674 -7983 -2 3 0
-3677 -3680 -7984 -2 1 0
-3677 -3681 -7984 -2 -3 1 0
-3678 -3680 -7984 -3 -2 1 0
-3678 -3681 -7984 -3 1 0
-3676 -3679 -7985 -1 2 0
-3676 -3681 -7985 -1 -3 2 0
-3678 -3679 -7985 -3 -1 2 0
-3678 -3681 -7985 -3 2 0
-3676 -3679 -7986 -1 3 0
-3676 -3680 -7986 -1 -2 3 0
-3677 -3679 -7986 -2 -1 3 0
-3677 -3680 -7986 -2 3 0
-3683 -3686 -7987 -2 1 0
-3683 -3687 -7987 -2 -3 1 0
-3684 -3686 -7987 -3 -2 1 0
-3684 -3687 -7987 -3 1 0
-3682 -3685 -7988 -1 2 0
-3682 -3687 -7988 -1 -3 2 0
-3684 -3685 -7988 -3 -1 2 0
-3684 -3687 -7988 -3 2 0
-3682 -3685 -7989 -1 3 0
-3682 -3686 -7989 -1 -2 3 0
-3683 -3685 -7989 -2 -1 3 0
-3683 -3686 -7989 -2 3 0
-3689 -3692 -7990 -2 1 0
-3689 -3693 -7990 -2 -3 1 0
-3690 -3692 -7990 -3 -2 1 0
-3690 -3693 -7990 -3 1 0
-3688 -3691 -7991 -1 2 0
-3688 -3693 -7991 -1 -3 2 0
-3690 -3691 -7991 -3 -1 2 0
-3690 -3693 -7991 -3 2 0
-3688 -3691 -7992 -1 3 0
-3688 -3692 -7992 -1 -2 3 0
-3689 -3691 -7992 -2 -1 3 0
-3689 -3692 -7992 -2 3 0
-3695 -3698 -7993 -2 1 0
-3695 -3699 -7993 -2 -3 1 0
-3696 -3698 -7993 -3 -2 1 0
-3696 -3699 -7993 -3 1 0
-3694 -3697 -7994 -1 2 0
-3694 -3699 -7994 -1 -3 2 0
-3696 -3697 -7994 -3 -1 2 0
-3696 -3699 -7994 -3 2 0
-3694 -3697 -7995 -1 3 0
-3694 -3698 -7995 -1 -2 3 0
-3695 -3697 -7995 -2 -1 3 0
-3695 -3698 -7995 -2 3 0
-3701 -3704 -7996 -2 1 0
-3701 -3705 -7996 -2 -3 1 0
-3702 -3704 -7996 -3 -2 1 0
-3702 -3705 -7996 -3 1 0
-3700 -3703 -7997 -1 2 0
-3700 -3705 -7997 -1 -3 2 0
-3702 -3703 -7997 -3 -1 2 0
-3702 -3705 -7997 -3 2 0
-3700 -3703 -7998 -1 3 0
-3700 -3704 -7998 -1 -2 3 0
-3701 -3703 -7998 -2 -1 3 0
-3701 -3704 -7998 -2 3 0
-3707 -3710 -7999 -2 1 0
-3707 -3711 -7999 -2 -3 1 0
-3708 -3710 -7999 -3 -2 1 0
-3708 -3711 -7999 -3 1 0
-3706 -3709 -8000 -1 2 0
-3706 -3711 -8000 -1 -3 2 0
-3708 -3709 -8000 -3 -1 2 0
-3708 -3711 -8000 -3 2 0
-3706 -3709 -8001 -1 3 0
-3706 -3710 -8001 -1 -2 3 0
-3707 -3709 -8001 -2 -1 3 0
-3707 -3710 -8001 -2 3 0
-3713 -3716 -8002 -2 1 0
-3713 -3717 -8002 -2 -3 1 0
-3714 -3716 -8002 -3 -2 1 0
-3714 -3717 -8002 -3 1 0
-3712 -3715 -8003 -1 2 0
-3712 -3717 -8003 -1 -3 2 0
-3714 -3715 -8003 -3 -1 2 0
-3714 -3717 -8003 -3 2 0
-3712 -3715 -8004 -1 3 0
-3712 -3716 -8004 -1 -2 3 0
-3713 -3715 -8004 -2 -1 3 0
-3713 -3716 -8004 -2 3 0
-3719 -3722 -8005 -2 1 0
-3719 -3723 -8005 -2 -3 1 0
-3720 -3722 -8005 -3 -2 1 0
-3720 -3723 -8005 -3 1 0
-3718 -3721 -8006 -1 2 0
-3718 -3723 -8006 -1 -3 2 0
-3720 -3721 -8006 -3 -1 2 0
-3720 -3723 -8006 -3 2 0
-3718 -3721 -8007 -1 3 0
-3718 -3722 -8007 -1 -2 3 0
-3719 -3721 -8007 -2 -1 3 0
-3719 -3722 -8007 -2 3 0
-3725 -3728 -8008 -2 1 0
-3725 -3729 -8008 -2 -3 1 0
-3726 -3728 -8008 -3 -2 1 0
-3726 -3729 -8008 -3 1 0
-3724 -3727 -8009 -1 2 0
-3724 -3729 -8009 -1 -3 2 0
-3726 -3727 -8009 -3 -1 2 0
-3726 -3729 -8009 -3 2 0
-3724 -3727 -8010 -1 3 0
-3724 -3728 -8010 -1 -2 3 0
-3725 -3727 -8010 -2 -1 3 0
-3725 -3728 -8010 -2 3 0
-3731 -3734 -8011 -2 1 0
-3731 -3735 -8011 -2 -3 1 0
-3732 -3734 -8011 -3 -2 1 0
-3732 -3735 -8011 -3 1 0
-3730 -3733 -8012 -1 2 0
-3730 -3735 -8012 -1 -3 2 0
-3732 -3733 -8012 -3 -1 2 0
-3732 -3735 -8012 -3 2 0
-3730 -3733 -8013 -1 3 0
-3730 -3734 -8013 -1 -2 3 0
-3731 -3733 -8013 -2 -1 3 0
-3731 -3734 -8013 -2 3 0
-3737 -3740 -8014 -2 1 0
-3737 -3741 -8014 -2 -3 1 0
-3738 -3740 -8014 -3 -2 1 0
-3738 -3741 -8014 -3 1 0
-3736 -3739 -8015 -1 2 0
-3736 -3741 -8015 -1 -3 2 0
-3738 -3739 -8015 -3 -1 2 0
-3738 -3741 -8015 -3 2 0
-3736 -3739 -8016 -1 3 0
-3736 -3740 -8016 -1 -2 3 0
-3737 -3739 -8016 -2 -1 3 0
-3737 -3740 -8016 -2 3 0
-3743 -3746 -8017 -2 1 0
-3743 -3747 -8017 -2 -3 1 0
-3744 -3746 -8017 -3 -2 1 0
-3744 -3747 -8017 -3 1 0
-3742 -3745 -8018 -1 2 0
-3742 -3747 -8018 -1 -3 2 0
-3744 -3745 -8018 -3 -1 2 0
-3744 -3747 -8018 -3 2 0
-3742 -3745 -8019 -1 3 0
-3742 -3746 -8019 -1 -2 3 0
-3743 -3745 -8019 -2 -1 3 0
-3743 -3746 -8019 -2 3 0
-3749 -3752 -8020 -2 1 0
-3749 -3753 -8020 -2 -3 1 0
-3750 -3752 -8020 -3 -2 1 0
-3750 -3753 -8020 -3 1 0
-3748 -3751 -8021 -1 2 0
-3748 -3753 -8021 -1 -3 2 0
-3750 -3751 -8021 -3 -1 2 0
-3750 -3753 -8021 -3 2 0
-3748 -3751 -8022 -1 3 0
-3748 -3752 -8022 -1 -2 3 0
-3749 -3751 -8022 -2 -1 3 0
-3749 -3752 -8022 -2 3 0
-3755 -3758 -8023 -2 1 0
-3755 -3759 -8023 -2 -3 1 0
-3756 -3758 -8023 -3 -2 1 0
-3756 -3759 -8023 -3 1 0
-3754 -3757 -8024 -1 2 0
-3754 -3759 -8024 -1 -3 2 0
-3756 -3757 -8024 -3 -1 2 0
-3756 -3759 -8024 -3 2 0
-3754 -3757 -8025 -1 3 0
-3754 -3758 -8025 -1 -2 3 0
-3755 -3757 -8025 -2 -1 3 0
-3755 -3758 -8025 -2 3 0
-3761 -3764 -8026 -2 1 0
-3761 -3765 -8026 -2 -3 1 0
-3762 -3764 -8026 -3 -2 1 0
-3762 -3765 -8026 -3 1 0
-3760 -3763 -8027 -1 2 0
-3760 -3765 -8027 -1 -3 2 0
-3762 -3763 -8027 -3 -1 2 0
-3762 -3765 -8027 -3 2 0
-3760 -3763 -8028 -1 3 0
-3760 -3764 -8028 -1 -2 3 0
-3761 -3763 -8028 -2 -1 3 0
-3761 -3764 -8028 -2 3 0
-3767 -3770 -8029 -2 1 0
-3767 -3771 -8029 -2 -3 1 0
-3768 -3770 -8029 -3 -2 1 0
-3768 -3771 -8029 -3 1 0
-3766 -3769 -8030 -1 2 0
-3766 -3771 -8030 -1 -3 2 0
-3768 -3769 -8030 -3 -1 2 0
-3768 -3771 -8030 -3 2 0
-3766 -3769 -8031 -1 3 0
-3766 -3770 -8031 -1 -2 3 0
-3767 -3769 -8031 -2 -1 3 0
-3767 -3770 -8031 -2 3 0
-3773 -3776 -8032 -2 1 0
-3773 -3777 -8032 -2 -3 1 0
-3774 -3776 -8032 -3 -2 1 0
-3774 -3777 -8032 -3 1 0
-3772 -3775 -8033 -1 2 0
-3772 -3777 -8033 -1 -3 2 0
-3774 -3775 -8033 -3 -1 2 0
-3774 -3777 -8033 -3 2 0
-3772 -3775 -8034 -1 3 0
-3772 -3776 -8034 -1 -2 3 0
-3773 -3775 -8034 -2 -1 3 0
-3773 -3776 -8034 -2 3 0
-3779 -3782 -8035 -2 1 0
-3779 -3783 -8035 -2 -3 1 0
-3780 -3782 -8035 -3 -2 1 0
-3780 -3783 -8035 -3 1 0
-3778 -3781 -8036 -1 2 0
-3778 -3783 -8036 -1 -3 2 0
-3780 -3781 -8036 -3 -1 2 0
-3780 -3783 -8036 -3 2 0
-3778 -3781 -8037 -1 3 0
-3778 -3782 -8037 -1 -2 3 0
-3779 -3781 -8037 -2 -1 3 0
-3779 -3782 -8037 -2 3 0
-3785 -3788 -8038 -2 1 0
-3785 -3789 -8038 -2 -3 1 0
-3786 -3788 -8038 -3 -2 1 0
-3786 -3789 -8038 -3 1 0
-3784 -3787 -8039 -1 2 0
-3784 -3789 -8039 -1 -3 2 0
-3786 -3787 -8039 -3 -1 2 0
-3786 -3789 -8039 -3 2 0
-3784 -3787 -8040 -1 3 0
-3784 -3788 -8040 -1 -2 3 0
-3785 -3787 -8040 -2 -1 3 0
-3785 -3788 -8040 -2 3 0
-3791 -3794 -8041 -2 1 0
-3791 -3795 -8041 -2 -3 1 0
-3792 -3794 -8041 -3 -2 1 0
-3792 -3795 -8041 -3 1 0
-3790 -3793 -8042 -1 2 0
-3790 -3795 -8042 -1 -3 2 0
-3792 -3793 -8042 -3 -1 2 0
-3792 -3795 -8042 -3 2 0
-3790 -3793 -8043 -1 3 0
-3790 -3794 -8043 -1 -2 3 0
-3791 -3793 -8043 -2 -1 3 0
-3791 -3794 -8043 -2 3 0
-3797 -3800 -8044 -2 1 0
-3797 -3801 -8044 -2 -3 1 0
-3798 -3800 -8044 -3 -2 1 0
-3798 -3801 -8044 -3 1 0
-3796 -3799 -8045 -1 2 0
-3796 -3801 -8045 -1 -3 2 0
-3798 -3799 -8045 -3 -1 2 0
-3798 -3801 -8045 -3 2 0
-3796 -3799 -8046 -1 3 0
-3796 -3800 -8046 -1 -2 3 0
-3797 -3799 -8046 -2 -1 3 0
-3797 -3800 -8046 -2 3 0
-3803 -3806 -8047 -2 1 0
-3803 -3807 -8047 -2 -3 1 0
-3804 -3806 -8047 -3 -2 1 0
-3804 -3807 -8047 -3 1 0
-3802 -3805 -8048 -1 2 0
-3802 -3807 -8048 -1 -3 2 0
-3804 -3805 -8048 -3 -1 2 0
-3804 -3807 -8048 -3 2 0
-3802 -3805 -8049 -1 3 0
-3802 -3806 -8049 -1 -2 3 0
-3803 -3805 -8049 -2 -1 3 0
-3803 -3806 -8049 -2 3 0
-3809 -3812 -8050 -2 1 0
-3809 -3813 -8050 -2 -3 1 0
-3810 -3812 -8050 -3 -2 1 0
-3810 -3813 -8050 -3 1 0
-3808 -3811 -8051 -1 2 0
-3808 -3813 -8051 -1 -3 2 0
-3810 -3811 -8051 -3 -1 2 0
-3810 -3813 -8051 -3 2 0
-3808 -3811 -8052 -1 3 0
-3808 -3812 -8052 -1 -2 3 0
-3809 -3811 -8052 -2 -1 3 0
-3809 -3812 -8052 -2 3 0
-3815 -3818 -8053 -2 1 0
-3815 -3819 -8053 -2 -3 1 0
-3816 -3818 -8053 -3 -2 1 0
-3816 -3819 -8053 -3 1 0
-3814 -3817 -8054 -1 2 0
-3814 -3819 -8054 -1 -3 2 0
-3816 -3817 -8054 -3 -1 2 0
-3816 -3819 -8054 -3 2 0
-3814 -3817 -8055 -1 3 0
-3814 -3818 -8055 -1 -2 3 0
-3815 -3817 -8055 -2 -1 3 0
-3815 -3818 -8055 -2 3 0
-3821 -3824 -8056 -2 1 0
-3821 -3825 -8056 -2 -3 1 0
-3822 -3824 -8056 -3 -2 1 0
-3822 -3825 -8056 -3 1 0
-3820 -3823 -8057 -1 2 0
-3820 -3825 -8057 -1 -3 2 0
-3822 -3823 -8057 -3 -1 2 0
-3822 -3825 -8057 -3 2 0
-3820 -3823 -8058 -1 3 0
-3820 -3824 -8058 -1 -2 3 0
-3821 -3823 -8058 -2 -1 3 0
-3821 -3824 -8058 -2 3 0
-3827 -3830 -8059 -2 1 0
-3827 -3831 -8059 -2 -3 1 0
-3828 -3830 -8059 -3 -2 1 0
-3828 -3831 -8059 -3 1 0
-3826 -3829 -8060 -1 2 0
-3826 -3831 -8060 -1 -3 2 0
-3828 -3829 -8060 -3 -1 2 0
-3828 -3831 -8060 -3 2 0
-3826 -3829 -8061 -1 3 0
-3826 -3830 -8061 -1 -2 3 0
-3827 -3829 -8061 -2 -1 3 0
-3827 -3830 -8061 -2 3 0
-3833 -3836 -8062 -2 1 0
-3833 -3837 -8062 -2 -3 1 0
-3834 -3836 -8062 -3 -2 1 0
-3834 -3837 -8062 -3 1 0
-3832 -3835 -8063 -1 2 0
-3832 -3837 -8063 -1 -3 2 0
-3834 -3835 -8063 -3 -1 2 0
-3834 -3837 -8063 -3 2 0
-3832 -3835 -8064 -1 3 0
-3832 -3836 -8064 -1 -2 3 0
-3833 -3835 -8064 -2 -1 3 0
-3833 -3836 -8064 -2 3 0
-3839 -3842 -8065 -2 1 0
-3839 -3843 -8065 -2 -3 1 0
-3840 -3842 -8065 -3 -2 1 0
-3840 -3843 -8065 -3 1 0
-3838 -3841 -8066 -1 2 0
-3838 -3843 -8066 -1 -3 2 0
-3840 -3841 -8066 -3 -1 2 0
-3840 -3843 -8066 -3 2 0
-3838 -3841 -8067 -1 3 0
-3838 -3842 -8067 -1 -2 3 0
-3839 -3841 -8067 -2 -1 3 0
-3839 -3842 -8067 -2 3 0
-3845 -3848 -8068 -2 1 0
-3845 -3849 -8068 -2 -3 1 0
-3846 -3848 -8068 -3 -2 1 0
-3846 -3849 -8068 -3 1 0
-3844 -3847 -8069 -1 2 0
-3844 -3849 -8069 -1 -3 2 0
-3846 -3847 -8069 -3 -1 2 0
-3846 -3849 -8069 -3 2 0
-3844 -3847 -8070 -1 3 0
-3844 -3848 -8070 -1 -2 3 0
-3845 -3847 -8070 -2 -1 3 0
-3845 -3848 -8070 -2 3 0
-3851 -3854 -8071 -2 1 0
-3851 -3855 -8071 -2 -3 1 0
-3852 -3854 -8071 -3 -2 1 0
-3852 -3855 -8071 -3 1 0
-3850 -3853 -8072 -1 2 0
-3850 -3855 -8072 -1 -3 2 0
-3852 -3853 -8072 -3 -1 2 0
-3852 -3855 -8072 -3 2 0
-3850 -3853 -8073 -1 3 0
-3850 -3854 -8073 -1 -2 3 0
-3851 -3853 -8073 -2 -1 3 0
-3851 -3854 -8073 -2 3 0
-3857 -3860 -8074 -2 1 0
-3857 -3861 -8074 -2 -3 1 0
-3858 -3860 -8074 -3 -2 1 0
-3858 -3861 -8074 -3 1 0
-3856 -3859 -8075 -1 2 0
-3856 -3861 -8075 -1 -3 2 0
-3858 -3859 -8075 -3 -1 2 0
-3858 -3861 -8075 -3 2 0
-3856 -3859 -8076 -1 3 0
-3856 -3860 -8076 -1 -2 3 0
-3857 -3859 -8076 -2 -1 3 0
-3857 -3860 -8076 -2 3 0
-3863 -3866 -8077 -2 1 0
-3863 -3867 -8077 -2 -3 1 0
-3864 -3866 -8077 -3 -2 1 0
-3864 -3867 -8077 -3 1 0
-3862 -3865 -8078 -1 2 0
-3862 -3867 -8078 -1 -3 2 0
-3864 -3865 -8078 -3 -1 2 0
-3864 -3867 -8078 -3 2 0
-3862 -3865 -8079 -1 3 0
-3862 -3866 -8079 -1 -2 3 0
-3863 -3865 -8079 -2 -1 3 0
-3863 -3866 -8079 -2 3 0
-3869 -3872 -8080 -2 1 0
-3869 -3873 -8080 -2 -3 1 0
-3870 -3872 -8080 -3 -2 1 0
-3870 -3873 -8080 -3 1 0
-3868 -3871 -8081 -1 2 0
-3868 -3873 -8081 -1 -3 2 0
-3870 -3871 -8081 -3 -1 2 0
-3870 -3873 -8081 -3 2 0
-3868 -3871 -8082 -1 3 0
-3868 -3872 -8082 -1 -2 3 0
-3869 -3871 -8082 -2 -1 3 0
-3869 -3872 -8082 -2 3 0
-3875 -3878 -8083 -2 1 0
-3875 -3879 -8083 -2 -3 1 0
-3876 -3878 -8083 -3 -2 1 0
-3876 -3879 -8083 -3 1 0
-3874 -3877 -8084 -1 2 0
-3874 -3879 -8084 -1 -3 2 0
-3876 -3877 -8084 -3 -1 2 0
-3876 -3879 -8084 -3 2 0
-3874 -3877 -8085 -1 3 0
-3874 -3878 -8085 -1 -2 3 0
-3875 -3877 -8085 -2 -1 3 0
-3875 -3878 -8085 -2 3 0
-3881 -3884 -8086 -2 1 0
-3881 -3885 -8086 -2 -3 1 0
-3882 -3884 -8086 -3 -2 1 0
-3882 -3885 -8086 -3 1 0
-3880 -3883 -8087 -1 2 0
-3880 -3885 -8087 -1 -3 2 0
-3882 -3883 -8087 -3 -1 2 0
-3882 -3885 -8087 -3 2 0
-3880 -3883 -8088 -1 3 0
-3880 -3884 -8088 -1 -2 3 0
-3881 -3883 -8088 -2 -1 3 0
-3881 -3884 -8088 -2 3 0
-3887 -3890 -8089 -2 1 0
-3887 -3891 -8089 -2 -3 1 0
-3888 -3890 -8089 -3 -2 1 0
-3888 -3891 -8089 -3 1 0
-3886 -3889 -8090 -1 2 0
-3886 -3891 -8090 -1 -3 2 0
-3888 -3889 -8090 -3 -1 2 0
-3888 -3891 -8090 -3 2 0
-3886 -3889 -8091 -1 3 0
-3886 -3890 -8091 -1 -2 3 0
-3887 -3889 -8091 -2 -1 3 0
-3887 -3890 -8091 -2 3 0
-3893 -3896 -8092 -2 1 0
-3893 -3897 -8092 -2 -3 1 0
-3894 -3896 -8092 -3 -2 1 0
-3894 -3897 -8092 -3 1 0
-3892 -3895 -8093 -1 2 0
-3892 -3897 -8093 -1 -3 2 0
-3894 -3895 -8093 -3 -1 2 0
-3894 -3897 -8093 -3 2 0
-3892 -3895 -8094 -1 3 0
-3892 -3896 -8094 -1 -2 3 0
-3893 -3895 -8094 -2 -1 3 0
-3893 -3896 -8094 -2 3 0
-3899 -3902 -8095 -2 1 0
-3899 -3903 -8095 -2 -3 1 0
-3900 -3902 -8095 -3 -2 1 0
-3900 -3903 -8095 -3 1 0
-3898 -3901 -8096 -1 2 0
-3898 -3903 -8096 -1 -3 2 0
-3900 -3901 -8096 -3 -1 2 0
-3900 -3903 -8096 -3 2 0
-3898 -3901 -8097 -1 3 0
-3898 -3902 -8097 -1 -2 3 0
-3899 -3901 -8097 -2 -1 3 0
-3899 -3902 -8097 -2 3 0
-3905 -3908 -8098 -2 1 0
-3905 -3909 -8098 -2 -3 1 0
-3906 -3908 -8098 -3 -2 1 0
-3906 -3909 -8098 -3 1 0
-3904 -3907 -8099 -1 2 0
-3904 -3909 -8099 -1 -3 2 0
-3906 -3907 -8099 -3 -1 2 0
-3906 -3909 -8099 -3 2 0
-3904 -3907 -8100 -1 3 0
-3904 -3908 -8100 -1 -2 3 0
-3905 -3907 -8100 -2 -1 3 0
-3905 -3908 -8100 -2 3 0
-3911 -3914 -8101 -2 1 0
-3911 -3915 -8101 -2 -3 1 0
-3912 -3914 -8101 -3 -2 1 0
-3912 -3915 -8101 -3 1 0
-3910 -3913 -8102 -1 2 0
-3910 -3915 -8102 -1 -3 2 0
-3912 -3913 -8102 -3 -1 2 0
-3912 -3915 -8102 -3 2 0
-3910 -3913 -8103 -1 3 0
-3910 -3914 -8103 -1 -2 3 0
-3911 -3913 -8103 -2 -1 3 0
-3911 -3914 -8103 -2 3 0
-3917 -3920 -8104 -2 1 0
-3917 -3921 -8104 -2 -3 1 0
-3918 -3920 -8104 -3 -2 1 0
-3918 -3921 -8104 -3 1 0
-3916 -3919 -8105 -1 2 0
-3916 -3921 -8105 -1 -3 2 0
-3918 -3919 -8105 -3 -1 2 0
-3918 -3921 -8105 -3 2 0
-3916 -3919 -8106 -1 3 0
-3916 -3920 -8106 -1 -2 3 0
-3917 -3919 -8106 -2 -1 3 0
-3917 -3920 -8106 -2 3 0
-3923 -3926 -8107 -2 1 0
-3923 -3927 -8107 -2 -3 1 0
-3924 -3926 -8107 -3 -2 1 0
-3924 -3927 -8107 -3 1 0
-3922 -3925 -8108 -1 2 0
-3922 -3927 -8108 -1 -3 2 0
-3924 -3925 -8108 -3 -1 2 0
-3924 -3927 -8108 -3 2 0
-3922 -3925 -8109 -1 3 0
-3922 -3926 -8109 -1 -2 3 0
-3923 -3925 -8109 -2 -1 3 0
-3923 -3926 -8109 -2 3 0
-3929 -3932 -8110 -2 1 0
-3929 -3933 -8110 -2 -3 1 0
-3930 -3932 -8110 -3 -2 1 0
-3930 -3933 -8110 -3 1 0
-3928 -3931 -8111 -1 2 0
-3928 -3933 -8111 -1 -3 2 0
-3930 -3931 -8111 -3 -1 2 0
-3930 -3933 -8111 -3 2 0
-3928 -3931 -8112 -1 3 0
-3928 -3932 -8112 -1 -2 3 0
-3929 -3931 -8112 -2 -1 3 0
-3929 -3932 -8112 -2 3 0
-3935 -3938 -8113 -2 1 0
-3935 -3939 -8113 -2 -3 1 0
-3936 -3938 -8113 -3 -2 1 0
-3936 -3939 -8113 -3 1 0
-3934 -3937 -8114 -1 2 0
-3934 -3939 -8114 -1 -3 2 0
-3936 -3937 -8114 -3 -1 2 0
-3936 -3939 -8114 -3 2 0
-3934 -3937 -8115 -1 3 0
-3934 -3938 -8115 -1 -2 3 0
-3935 -3937 -8115 -2 -1 3 0
-3935 -3938 -8115 -2 3 0
-3941 -3944 -8116 -2 1 0
-3941 -3945 -8116 -2 -3 1 0
-3942 -3944 -8116 -3 -2 1 0
-3942 -3945 -8116 -3 1 0
-3940 -3943 -8117 -1 2 0
-3940 -3945 -8117 -1 -3 2 0
-3942 -3943 -8117 -3 -1 2 0
-3942 -3945 -8117 -3 2 0
-3940 -3943 -8118 -1 3 0
-3940 -3944 -8118 -1 -2 3 0
-3941 -3943 -8118 -2 -1 3 0
-3941 -3944 -8118 -2 3 0
-3947 -3950 -8119 -2 1 0
-3947 -3951 -8119 -2 -3 1 0
-3948 -3950 -8119 -3 -2 1 0
-3948 -3951 -8119 -3 1 0
-3946 -3949 -8120 -1 2 0
-3946 -3951 -8120 -1 -3 2 0
-3948 -3949 -8120 -3 -1 2 0
-3948 -3951 -8120 -3 2 0
-3946 -3949 -8121 -1 3 0
-3946 -3950 -8121 -1 -2 3 0
-3947 -3949 -8121 -2 -1 3 0
-3947 -3950 -8121 -2 3 0
-3953 -3956 -8122 -2 1 0
-3953 -3957 -8122 -2 -3 1 0
-3954 -3956 -8122 -3 -2 1 0
-3954 -3957 -8122 -3 1 0
-3952 -3955 -8123 -1 2 0
-3952 -3957 -8123 -1 -3 2 0
-3954 -3955 -8123 -3 -1 2 0
-3954 -3957 -8123 -3 2 0
-3952 -3955 -8124 -1 3 0
-3952 -3956 -8124 -1 -2 3 0
-3953 -3955 -8124 -2 -1 3 0
-3953 -3956 -8124 -2 3 0
-3959 -3962 -8125 -2 1 0
-3959 -3963 -8125 -2 -3 1 0
-3960 -3962 -8125 -3 -2 1 0
-3960 -3963 -8125 -3 1 0
-3958 -3961 -8126 -1 2 0
-3958 -3963 -8126 -1 -3 2 0
-3960 -3961 -8126 -3 -1 2 0
-3960 -3963 -8126 -3 2 0
-3958 -3961 -8127 -1 3 0
-3958 -3962 -8127 -1 -2 3 0
-3959 -3961 -8127 -2 -1 3 0
-3959 -3962 -8127 -2 3 0
-3965 -3968 -8128 -2 1 0
-3965 -3969 -8128 -2 -3 1 0
-3966 -3968 -8128 -3 -2 1 0
-3966 -3969 -8128 -3 1 0
-3964 -3967 -8129 -1 2 0
-3964 -3969 -8129 -1 -3 2 0
-3966 -3967 -8129 -3 -1 2 0
-3966 -3969 -8129 -3 2 0
-3964 -3967 -8130 -1 3 0
-3964 -3968 -8130 -1 -2 3 0
-3965 -3967 -8130 -2 -1 3 0
-3965 -3968 -8130 -2 3 0
-3971 -3974 -8131 -2 1 0
-3971 -3975 -8131 -2 -3 1 0
-3972 -3974 -8131 -3 -2 1 0
-3972 -3975 -8131 -3 1 0
-3970 -3973 -8132 -1 2 0
-3970 -3975 -8132 -1 -3 2 0
-3972 -3973 -8132 -3 -1 2 0
-3972 -3975 -8132 -3 2 0
-3970 -3973 -8133 -1 3 0
-3970 -3974 -8133 -1 -2 3 0
-3971 -3973 -8133 -2 -1 3 0
-3971 -3974 -8133 -2 3 0
-3977 -3980 -8134 -2 1 0
-3977 -3981 -8134 -2 -3 1 0
-3978 -3980 -8134 -3 -2 1 0
-3978 -3981 -8134 -3 1 0
-3976 -3979 -8135 -1 2 0
-3976 -3981 -8135 -1 -3 2 0
-3978 -3979 -8135 -3 -1 2 0
-3978 -3981 -8135 -3 2 0
-3976 -3979 -8136 -1 3 0
-3976 -3980 -8136 -1 -2 3 0
-3977 -3979 -8136 -2 -1 3 0
-3977 -3980 -8136 -2 3 0
-3983 -3986 -8137 -2 1 0
-3983 -3987 -8137 -2 -3 1 0
-3984 -3986 -8137 -3 -2 1 0
-3984 -3987 -8137 -3 1 0
-3982 -3985 -8138 -1 2 0
-3982 -3987 -8138 -1 -3 2 0
-3984 -3985 -8138 -3 -1 2 0
-3984 -3987 -8138 -3 2 0
-3982 -3985 -8139 -1 3 0
-3982 -3986 -8139 -1 -2 3 0
-3983 -3985 -8139 -2 -1 3 0
-3983 -3986 -8139 -2 3 0
-3989 -3992 -8140 -2 1 0
-3989 -3993 -8140 -2 -3 1 0
-3990 -3992 -8140 -3 -2 1 0
-3990 -3993 -8140 -3 1 0
-3988 -3991 -8141 -1 2 0
-3988 -3993 -8141 -1 -3 2 0
-3990 -3991 -8141 -3 -1 2 0
-3990 -3993 -8141 -3 2 0
-3988 -3991 -8142 -1 3 0
-3988 -3992 -8142 -1 -2 3 0
-3989 -3991 -8142 -2 -1 3 0
-3989 -3992 -8142 -2 3 0
-3995 -3998 -8143 -2 1 0
-3995 -3999 -8143 -2 -3 1 0
-3996 -3998 -8143 -3 -2 1 0
-3996 -3999 -8143 -3 1 0
-3994 -3997 -8144 -1 2 0
-3994 -3999 -8144 -1 -3 2 0
-3996 -3997 -8144 -3 -1 2 0
-3996 -3999 -8144 -3 2 0
-3994 -3997 -8145 -1 3 0
-3994 -3998 -8145 -1 -2 3 0
-3995 -3997 -8145 -2 -1 3 0
-3995 -3998 -8145 -2 3 0
-4001 -4004 -8146 -2 1 0
-4001 -4005 -8146 -2 -3 1 0
-4002 -4004 -8146 -3 -2 1 0
-4002 -4005 -8146 -3 1 0
-4000 -4003 -8147 -1 2 0
-4000 -4005 -8147 -1 -3 2 0
-4002 -4003 -8147 -3 -1 2 0
-4002 -4005 -8147 -3 2 0
-4000 -4003 -8148 -1 3 0
-4000 -4004 -8148 -1 -2 3 0
-4001 -4003 -8148 -2 -1 3 0
-4001 -4004 -8148 -2 3 0
-4007 -4010 -8149 -2 1 0
-4007 -4011 -8149 -2 -3 1 0
-4008 -4010 -8149 -3 -2 1 0
-4008 -4011 -8149 -3 1 0
-4006 -4009 -8150 -1 2 0
-4006 -4011 -8150 -1 -3 2 0
-4008 -4009 -8150 -3 -1 2 0
-4008 -4011 -8150 -3 2 0
-4006 -4009 -8151 -1 3 0
-4006 -4010 -8151 -1 -2 3 0
-4007 -4009 -8151 -2 -1 3 0
-4007 -4010 -8151 -2 3 0
-4013 -4016 -8152 -2 1 0
-4013 -4017 -8152 -2 -3 1 0
-4014 -4016 -8152 -3 -2 1 0
-4014 -4017 -8152 -3 1 0
-4012 -4015 -8153 -1 2 0
-4012 -4017 -8153 -1 -3 2 0
-4014 -4015 -8153 -3 -1 2 0
-4014 -4017 -8153 -3 2 0
-4012 -4015 -8154 -1 3 0
-4012 -4016 -8154 -1 -2 3 0
-4013 -4015 -8154 -2 -1 3 0
-4013 -4016 -8154 -2 3 0
-4019 -4022 -8155 -2 1 0
-4019 -4023 -8155 -2 -3 1 0
-4020 -4022 -8155 -3 -2 1 0
-4020 -4023 -8155 -3 1 0
-4018 -4021 -8156 -1 2 0
-4018 -4023 -8156 -1 -3 2 0
-4020 -4021 -8156 -3 -1 2 0
-4020 -4023 -8156 -3 2 0
-4018 -4021 -8157 -1 3 0
-4018 -4022 -8157 -1 -2 3 0
-4019 -4021 -8157 -2 -1 3 0
-4019 -4022 -8157 -2 3 0
-4025 -4028 -8158 -2 1 0
-4025 -4029 -8158 -2 -3 1 0
-4026 -4028 -8158 -3 -2 1 0
-4026 -4029 -8158 -3 1 0
-4024 -4027 -8159 -1 2 0
-4024 -4029 -8159 -1 -3 2 0
-4026 -4027 -8159 -3 -1 2 0
-4026 -4029 -8159 -3 2 0
-4024 -4027 -8160 -1 3 0
-4024 -4028 -8160 -1 -2 3 0
-4025 -4027 -8160 -2 -1 3 0
-4025 -4028 -8160 -2 3 0
-4031 -4034 -8161 -2 1 0
-4031 -4035 -8161 -2 -3 1 0
-4032 -4034 -8161 -3 -2 1 0
-4032 -4035 -8161 -3 1 0
-4030 -4033 -8162 -1 2 0
-4030 -4035 -8162 -1 -3 2 0
-4032 -4033 -8162 -3 -1 2 0
-4032 -4035 -8162 -3 2 0
-4030 -4033 -8163 -1 3 0
-4030 -4034 -8163 -1 -2 3 0
-4031 -4033 -8163 -2 -1 3 0
-4031 -4034 -8163 -2 3 0
-4037 -4040 -8164 -2 1 0
-4037 -4041 -8164 -2 -3 1 0
-4038 -4040 -8164 -3 -2 1 0
-4038 -4041 -8164 -3 1 0
-4036 -4039 -8165 -1 2 0
-4036 -4041 -8165 -1 -3 2 0
-4038 -4039 -8165 -3 -1 2 0
-4038 -4041 -8165 -3 2 0
-4036 -4039 -8166 -1 3 0
-4036 -4040 -8166 -1 -2 3 0
-4037 -4039 -8166 -2 -1 3 0
-4037 -4040 -8166 -2 3 0
-4043 -4046 -8167 -2 1 0
-4043 -4047 -8167 -2 -3 1 0
-4044 -4046 -8167 -3 -2 1 0
-4044 -4047 -8167 -3 1 0
-4042 -4045 -8168 -1 2 0
-4042 -4047 -8168 -1 -3 2 0
-4044 -4045 -8168 -3 -1 2 0
-4044 -4047 -8168 -3 2 0
-4042 -4045 -8169 -1 3 0
-4042 -4046 -8169 -1 -2 3 0
-4043 -4045 -8169 -2 -1 3 0
-4043 -4046 -8169 -2 3 0
-4049 -4052 -8170 -2 1 0
-4049 -4053 -8170 -2 -3 1 0
-4050 -4052 -8170 -3 -2 1 0
-4050 -4053 -8170 -3 1 0
-4048 -4051 -8171 -1 2 0
-4048 -4053 -8171 -1 -3 2 0
-4050 -4051 -8171 -3 -1 2 0
-4050 -4053 -8171 -3 2 0
-4048 -4051 -8172 -1 3 0
-4048 -4052 -8172 -1 -2 3 0
-4049 -4051 -8172 -2 -1 3 0
-4049 -4052 -8172 -2 3 0
-4055 -4058 -8173 -2 1 0
-4055 -4059 -8173 -2 -3 1 0
-4056 -4058 -8173 -3 -2 1 0
-4056 -4059 -8173 -3 1 0
-4054 -4057 -8174 -1 2 0
-4054 -4059 -8174 -1 -3 2 0
-4056 -4057 -8174 -3 -1 2 0
-4056 -4059 -8174 -3 2 0
-4054 -4057 -8175 -1 3 0
-4054 -4058 -8175 -1 -2 3 0
-4055 -4057 -8175 -2 -1 3 0
-4055 -4058 -8175 -2 3 0
-4061 -4064 -8176 -2 1 0
-4061 -4065 -8176 -2 -3 1 0
-4062 -4064 -8176 -3 -2 1 0
-4062 -4065 -8176 -3 1 0
-4060 -4063 -8177 -1 2 0
-4060 -4065 -8177 -1 -3 2 0
-4062 -4063 -8177 -3 -1 2 0
-4062 -4065 -8177 -3 2 0
-4060 -4063 -8178 -1 3 0
-4060 -4064 -8178 -1 -2 3 0
-4061 -4063 -8178 -2 -1 3 0
-4061 -4064 -8178 -2 3 0
-4067 -4070 -8179 -2 1 0
-4067 -4071 -8179 -2 -3 1 0
-4068 -4070 -8179 -3 -2 1 0
-4068 -4071 -8179 -3 1 0
-4066 -4069 -8180 -1 2 0
-4066 -4071 -8180 -1 -3 2 0
-4068 -4069 -8180 -3 -1 2 0
-4068 -4071 -8180 -3 2 0
-4066 -4069 -8181 -1 3 0
-4066 -4070 -8181 -1 -2 3 0
-4067 -4069 -8181 -2 -1 3 0
-4067 -4070 -8181 -2 3 0
-4073 -4076 -8182 -2 1 0
-4073 -4077 -8182 -2 -3 1 0
-4074 -4076 -8182 -3 -2 1 0
-4074 -4077 -8182 -3 1 0
-4072 -4075 -8183 -1 2 0
-4072 -4077 -8183 -1 -3 2 0
-4074 -4075 -8183 -3 -1 2 0
-4074 -4077 -8183 -3 2 0
-4072 -4075 -8184 -1 3 0
-4072 -4076 -8184 -1 -2 3 0
-4073 -4075 -8184 -2 -1 3 0
-4073 -4076 -8184 -2 3 0
-4079 -4082 -8185 -2 1 0
-4079 -4083 -8185 -2 -3 1 0
-4080 -4082 -8185 -3 -2 1 0
-4080 -4083 -8185 -3 1 0
-4078 -4081 -8186 -1 2 0
-4078 -4083 -8186 -1 -3 2 0
-4080 -4081 -8186 -3 -1 2 0
-4080 -4083 -8186 -3 2 0
-4078 -4081 -8187 -1 3 0
-4078 -4082 -8187 -1 -2 3 0
-4079 -4081 -8187 -2 -1 3 0
-4079 -4082 -8187 -2 3 0
-4085 -4088 -8188 -2 1 0
-4085 -4089 -8188 -2 -3 1 0
-4086 -4088 -8188 -3 -2 1 0
-4086 -4089 -8188 -3 1 0
-4084 -4087 -8189 -1 2 0
-4084 -4089 -8189 -1 -3 2 0
-4086 -4087 -8189 -3 -1 2 0
-4086 -4089 -8189 -3 2 0
-4084 -4087 -8190 -1 3 0
-4084 -4088 -8190 -1 -2 3 0
-4085 -4087 -8190 -2 -1 3 0
-4085 -4088 -8190 -2 3 0
-4091 -4094 -8191 -2 1 0
-4091 -4095 -8191 -2 -3 1 0
-4092 -4094 -8191 -3 -2 1 0
-4092 -4095 -8191 -3 1 0
-4090 -4093 -8192 -1 2 0
-4090 -4095 -8192 -1 -3 2 0
-4092 -4093 -8192 -3 -1 2 0
-4092 -4095 -8192 -3 2 0
-4090 -4093 -8193 -1 3 0
-4090 -4094 -8193 -1 -2 3 0
-4091 -4093 -8193 -2 -1 3 0
-4091 -4094 -8193 -2 3 0
-4097 -4100 -8194 -2 1 0
-4097 -4101 -8194 -2 -3 1 0
-4098 -4100 -8194 -3 -2 1 0
-4098 -4101 -8194 -3 1 0
-4096 -4099 -8195 -1 2 0
-4096 -4101 -8195 -1 -3 2 0
-4098 -4099 -8195 -3 -1 2 0
-4098 -4101 -8195 -3 2 0
-4096 -4099 -8196 -1 3 0
-4096 -4100 -8196 -1 -2 3 0
-4097 -4099 -8196 -2 -1 3 0
-4097 -4100 -8196 -2 3 0
-4103 -4106 -8197 -2 1 0
-4103 -4107 -8197 -2 -3 1 0
-4104 -4106 -8197 -3 -2 1 0
-4104 -4107 -8197 -3 1 0
-4102 -4105 -8198 -1 2 0
-4102 -4107 -8198 -1 -3 2 0
-4104 -4105 -8198 -3 -1 2 0
-4104 -4107 -8198 -3 2 0
-4102 -4105 -8199 -1 3 0
-4102 -4106 -8199 -1 -2 3 0
-4103 -4105 -8199 -2 -1 3 0
-4103 -4106 -8199 -2 3 0
-4109 -4112 -8200 -2 1 0
-4109 -4113 -8200 -2 -3 1 0
-4110 -4112 -8200 -3 -2 1 0
-4110 -4113 -8200 -3 1 0
-4108 -4111 -8201 -1 2 0
-4108 -4113 -8201 -1 -3 2 0
-4110 -4111 -8201 -3 -1 2 0
-4110 -4113 -8201 -3 2 0
-4108 -4111 -8202 -1 3 0
-4108 -4112 -8202 -1 -2 3 0
-4109 -4111 -8202 -2 -1 3 0
-4109 -4112 -8202 -2 3 0
-4115 -4118 -8203 -2 1 0
-4115 -4119 -8203 -2 -3 1 0
-4116 -4118 -8203 -3 -2 1 0
-4116 -4119 -8203 -3 1 0
-4114 -4117 -8204 -1 2 0
-4114 -4119 -8204 -1 -3 2 0
-4116 -4117 -8204 -3 -1 2 0
-4116 -4119 -8204 -3 2 0
-4114 -4117 -8205 -1 3 0
-4114 -4118 -8205 -1 -2 3 0
-4115 -4117 -8205 -2 -1 3 0
-4115 -4118 -8205 -2 3 0
-4121 -4124 -8206 -2 1 0
-4121 -4125 -8206 -2 -3 1 0
-4122 -4124 -8206 -3 -2 1 0
-4122 -4125 -8206 -3 1 0
-4120 -4123 -8207 -1 2 0
-4120 -4125 -8207 -1 -3 2 0
-4122 -4123 -8207 -3 -1 2 0
-4122 -4125 -8207 -3 2 0
-4120 -4123 -8208 -1 3 0
-4120 -4124 -8208 -1 -2 3 0
-4121 -4123 -8208 -2 -1 3 0
-4121 -4124 -8208 -2 3 0
-4127 -4130 -8209 -2 1 0
-4127 -4131 -8209 -2 -3 1 0
-4128 -4130 -8209 -3 -2 1 0
-4128 -4131 -8209 -3 1 0
-4126 -4129 -8210 -1 2 0
-4126 -4131 -8210 -1 -3 2 0
-4128 -4129 -8210 -3 -1 2 0
-4128 -4131 -8210 -3 2 0
-4126 -4129 -8211 -1 3 0
-4126 -4130 -8211 -1 -2 3 0
-4127 -4129 -8211 -2 -1 3 0
-4127 -4130 -8211 -2 3 0
-4133 -4136 -8212 -2 1 0
-4133 -4137 -8212 -2 -3 1 0
-4134 -4136 -8212 -3 -2 1 0
-4134 -4137 -8212 -3 1 0
-4132 -4135 -8213 -1 2 0
-4132 -4137 -8213 -1 -3 2 0
-4134 -4135 -8213 -3 -1 2 0
-4134 -4137 -8213 -3 2 0
-4132 -4135 -8214 -1 3 0
-4132 -4136 -8214 -1 -2 3 0
-4133 -4135 -8214 -2 -1 3 0
-4133 -4136 -8214 -2 3 0
-4139 -4142 -8215 -2 1 0
-4139 -4143 -8215 -2 -3 1 0
-4140 -4142 -8215 -3 -2 1 0
-4140 -4143 -8215 -3 1 0
-4138 -4141 -8216 -1 2 0
-4138 -4143 -8216 -1 -3 2 0
-4140 -4141 -8216 -3 -1 2 0
-4140 -4143 -8216 -3 2 0
-4138 -4141 -8217 -1 3 0
-4138 -4142 -8217 -1 -2 3 0
-4139 -4141 -8217 -2 -1 3 0
-4139 -4142 -8217 -2 3 0
-4145 -4148 -8218 -2 1 0
-4145 -4149 -8218 -2 -3 1 0
-4146 -4148 -8218 -3 -2 1 0
-4146 -4149 -8218 -3 1 0
-4144 -4147 -8219 -1 2 0
-4144 -4149 -8219 -1 -3 2 0
-4146 -4147 -8219 -3 -1 2 0
-4146 -4149 -8219 -3 2 0
-4144 -4147 -8220 -1 3 0
-4144 -4148 -8220 -1 -2 3 0
-4145 -4147 -8220 -2 -1 3 0
-4145 -4148 -8220 -2 3 0
-4151 -4154 -8221 -2 1 0
-4151 -4155 -8221 -2 -3 1 0
-4152 -4154 -8221 -3 -2 1 0
-4152 -4155 -8221 -3 1 0
-4150 -4153 -8222 -1 2 0
-4150 -4155 -8222 -1 -3 2 0
-4152 -4153 -8222 -3 -1 2 0
-4152 -4155 -8222 -3 2 0
-4150 -4153 -8223 -1 3 0
-4150 -4154 -8223 -1 -2 3 0
-4151 -4153 -8223 -2 -1 3 0
-4151 -4154 -8223 -2 3 0
-4157 -4160 -8224 -2 1 0
-4157 -4161 -8224 -2 -3 1 0
-4158 -4160 -8224 -3 -2 1 0
-4158 -4161 -8224 -3 1 0
-4156 -4159 -8225 -1 2 0
-4156 -4161 -8225 -1 -3 2 0
-4158 -4159 -8225 -3 -1 2 0
-4158 -4161 -8225 -3 2 0
-4156 -4159 -8226 -1 3 0
-4156 -4160 -8226 -1 -2 3 0
-4157 -4159 -8226 -2 -1 3 0
-4157 -4160 -8226 -2 3 0
-4163 -4166 -8227 -2 1 0
-4163 -4167 -8227 -2 -3 1 0
-4164 -4166 -8227 -3 -2 1 0
-4164 -4167 -8227 -3 1 0
-4162 -4165 -8228 -1 2 0
-4162 -4167 -8228 -1 -3 2 0
-4164 -4165 -8228 -3 -1 2 0
-4164 -4167 -8228 -3 2 0
-4162 -4165 -8229 -1 3 0
-4162 -4166 -8229 -1 -2 3 0
-4163 -4165 -8229 -2 -1 3 0
-4163 -4166 -8229 -2 3 0
-4169 -4172 -8230 -2 1 0
-4169 -4173 -8230 -2 -3 1 0
-4170 -4172 -8230 -3 -2 1 0
-4170 -4173 -8230 -3 1 0
-4168 -4171 -8231 -1 2 0
-4168 -4173 -8231 -1 -3 2 0
-4170 -4171 -8231 -3 -1 2 0
-4170 -4173 -8231 -3 2 0
-4168 -4171 -8232 -1 3 0
-4168 -4172 -8232 -1 -2 3 0
-4169 -4171 -8232 -2 -1 3 0
-4169 -4172 -8232 -2 3 0
-4175 -4178 -8233 -2 1 0
-4175 -4179 -8233 -2 -3 1 0
-4176 -4178 -8233 -3 -2 1 0
-4176 -4179 -8233 -3 1 0
-4174 -4177 -8234 -1 2 0
-4174 -4179 -8234 -1 -3 2 0
-4176 -4177 -8234 -3 -1 2 0
-4176 -4179 -8234 -3 2 0
-4174 -4177 -8235 -1 3 0
-4174 -4178 -8235 -1 -2 3 0
-4175 -4177 -8235 -2 -1 3 0
-4175 -4178 -8235 -2 3 0
-4181 -4184 -8236 -2 1 0
-4181 -4185 -8236 -2 -3 1 0
-4182 -4184 -8236 -3 -2 1 0
-4182 -4185 -8236 -3 1 0
-4180 -4183 -8237 -1 2 0
-4180 -4185 -8237 -1 -3 2 0
-4182 -4183 -8237 -3 -1 2 0
-4182 -4185 -8237 -3 2 0
-4180 -4183 -8238 -1 3 0
-4180 -4184 -8238 -1 -2 3 0
-4181 -4183 -8238 -2 -1 3 0
-4181 -4184 -8238 -2 3 0
-4187 -4190 -8239 -2 1 0
-4187 -4191 -8239 -2 -3 1 0
-4188 -4190 -8239 -3 -2 1 0
-4188 -4191 -8239 -3 1 0
-4186 -4189 -8240 -1 2 0
-4186 -4191 -8240 -1 -3 2 0
-4188 -4189 -8240 -3 -1 2 0
-4188 -4191 -8240 -3 2 0
-4186 -4189 -8241 -1 3 0
-4186 -4190 -8241 -1 -2 3 0
-4187 -4189 -8241 -2 -1 3 0
-4187 -4190 -8241 -2 3 0
-4193 -4196 -8242 -2 1 0
-4193 -4197 -8242 -2 -3 1 0
-4194 -4196 -8242 -3 -2 1 0
-4194 -4197 -8242 -3 1 0
-4192 -4195 -8243 -1 2 0
-4192 -4197 -8243 -1 -3 2 0
-4194 -4195 -8243 -3 -1 2 0
-4194 -4197 -8243 -3 2 0
-4192 -4195 -8244 -1 3 0
-4192 -4196 -8244 -1 -2 3 0
-4193 -4195 -8244 -2 -1 3 0
-4193 -4196 -8244 -2 3 0
-4199 -4202 -8245 -2 1 0
-4199 -4203 -8245 -2 -3 1 0
-4200 -4202 -8245 -3 -2 1 0
-4200 -4203 -8245 -3 1 0
-4198 -4201 -8246 -1 2 0
-4198 -4203 -8246 -1 -3 2 0
-4200 -4201 -8246 -3 -1 2 0
-4200 -4203 -8246 -3 2 0
-4198 -4201 -8247 -1 3 0
-4198 -4202 -8247 -1 -2 3 0
-4199 -4201 -8247 -2 -1 3 0
-4199 -4202 -8247 -2 3 0
-4205 -4208 -8248 -2 1 0
-4205 -4209 -8248 -2 -3 1 0
-4206 -4208 -8248 -3 -2 1 0
-4206 -4209 -8248 -3 1 0
-4204 -4207 -8249 -1 2 0
-4204 -4209 -8249 -1 -3 2 0
-4206 -4207 -8249 -3 -1 2 0
-4206 -4209 -8249 -3 2 0
-4204 -4207 -8250 -1 3 0
-4204 -4208 -8250 -1 -2 3 0
-4205 -4207 -8250 -2 -1 3 0
-4205 -4208 -8250 -2 3 0
-4211 -4214 -8251 -2 1 0
-4211 -4215 -8251 -2 -3 1 0
-4212 -4214 -8251 -3 -2 1 0
-4212 -4215 -8251 -3 1 0
-4210 -4213 -8252 -1 2 0
-4210 -4215 -8252 -1 -3 2 0
-4212 -4213 -8252 -3 -1 2 0
-4212 -4215 -8252 -3 2 0
-4210 -4213 -8253 -1 3 0
-4210 -4214 -8253 -1 -2 3 0
-4211 -4213 -8253 -2 -1 3 0
-4211 -4214 -8253 -2 3 0
-4217 -4220 -8254 -2 1 0
-4217 -4221 -8254 -2 -3 1 0
-4218 -4220 -8254 -3 -2 1 0
-4218 -4221 -8254 -3 1 0
-4216 -4219 -8255 -1 2 0
-4216 -4221 -8255 -1 -3 2 0
-4218 -4219 -8255 -3 -1 2 0
-4218 -4221 -8255 -3 2 0
-4216 -4219 -8256 -1 3 0
-4216 -4220 -8256 -1 -2 3 0
-4217 -4219 -8256 -2 -1 3 0
-4217 -4220 -8256 -2 3 0
-4223 -4226 -8257 -2 1 0
-4223 -4227 -8257 -2 -3 1 0
-4224 -4226 -8257 -3 -2 1 0
-4224 -4227 -8257 -3 1 0
-4222 -4225 -8258 -1 2 0
-4222 -4227 -8258 -1 -3 2 0
-4224 -4225 -8258 -3 -1 2 0
-4224 -4227 -8258 -3 2 0
-4222 -4225 -8259 -1 3 0
-4222 -4226 -8259 -1 -2 3 0
-4223 -4225 -8259 -2 -1 3 0
-4223 -4226 -8259 -2 3 0
-4229 -4232 -8260 -2 1 0
-4229 -4233 -8260 -2 -3 1 0
-4230 -4232 -8260 -3 -2 1 0
-4230 -4233 -8260 -3 1 0
-4228 -4231 -8261 -1 2 0
-4228 -4233 -8261 -1 -3 2 0
-4230 -4231 -8261 -3 -1 2 0
-4230 -4233 -8261 -3 2 0
-4228 -4231 -8262 -1 3 0
-4228 -4232 -8262 -1 -2 3 0
-4229 -4231 -8262 -2 -1 3 0
-4229 -4232 -8262 -2 3 0
-4235 -4238 -8263 -2 1 0
-4235 -4239 -8263 -2 -3 1 0
-4236 -4238 -8263 -3 -2 1 0
-4236 -4239 -8263 -3 1 0
-4234 -4237 -8264 -1 2 0
-4234 -4239 -8264 -1 -3 2 0
-4236 -4237 -8264 -3 -1 2 0
-4236 -4239 -8264 -3 2 0
-4234 -4237 -8265 -1 3 0
-4234 -4238 -8265 -1 -2 3 0
-4235 -4237 -8265 -2 -1 3 0
-4235 -4238 -8265 -2 3 0
-4241 -4244 -8266 -2 1 0
-4241 -4245 -8266 -2 -3 1 0
-4242 -4244 -8266 -3 -2 1 0
-4242 -4245 -8266 -3 1 0
-4240 -4243 -8267 -1 2 0
-4240 -4245 -8267 -1 -3 2 0
-4242 -4243 -8267 -3 -1 2 0
-4242 -4245 -8267 -3 2 0
-4240 -4243 -8268 -1 3 0
-4240 -4244 -8268 -1 -2 3 0
-4241 -4243 -8268 -2 -1 3 0
-4241 -4244 -8268 -2 3 0
-4247 -4250 -8269 -2 1 0
-4247 -4251 -8269 -2 -3 1 0
-4248 -4250 -8269 -3 -2 1 0
-4248 -4251 -8269 -3 1 0
-4246 -4249 -8270 -1 2 0
-4246 -4251 -8270 -1 -3 2 0
-4248 -4249 -8270 -3 -1 2 0
-4248 -4251 -8270 -3 2 0
-4246 -4249 -8271 -1 3 0
-4246 -4250 -8271 -1 -2 3 0
-4247 -4249 -8271 -2 -1 3 0
-4247 -4250 -8271 -2 3 0
-4253 -4256 -8272 -2 1 0
-4253 -4257 -8272 -2 -3 1 0
-4254 -4256 -8272 -3 -2 1 0
-4254 -4257 -8272 -3 1 0
-4252 -4255 -8273 -1 2 0
-4252 -4257 -8273 -1 -3 2 0
-4254 -4255 -8273 -3 -1 2 0
-4254 -4257 -8273 -3 2 0
-4252 -4255 -8274 -1 3 0
-4252 -4256 -8274 -1 -2 3 0
-4253 -4255 -8274 -2 -1 3 0
-4253 -4256 -8274 -2 3 0
-4259 -4262 -8275 -2 1 0
-4259 -4263 -8275 -2 -3 1 0
-4260 -4262 -8275 -3 -2 1 0
-4260 -4263 -8275 -3 1 0
-4258 -4261 -8276 -1 2 0
-4258 -4263 -8276 -1 -3 2 0
-4260 -4261 -8276 -3 -1 2 0
-4260 -4263 -8276 -3 2 0
-4258 -4261 -8277 -1 3 0
-4258 -4262 -8277 -1 -2 3 0
-4259 -4261 -8277 -2 -1 3 0
-4259 -4262 -8277 -2 3 0
-4265 -4268 -8278 -2 1 0
-4265 -4269 -8278 -2 -3 1 0
-4266 -4268 -8278 -3 -2 1 0
-4266 -4269 -8278 -3 1 0
-4264 -4267 -8279 -1 2 0
-4264 -4269 -8279 -1 -3 2 0
-4266 -4267 -8279 -3 -1 2 0
-4266 -4269 -8279 -3 2 0
-4264 -4267 -8280 -1 3 0
-4264 -4268 -8280 -1 -2 3 0
-4265 -4267 -8280 -2 -1 3 0
-4265 -4268 -8280 -2 3 0
-4271 -4274 -8281 -2 1 0
-4271 -4275 -8281 -2 -3 1 0
-4272 -4274 -8281 -3 -2 1 0
-4272 -4275 -8281 -3 1 0
-4270 -4273 -8282 -1 2 0
-4270 -4275 -8282 -1 -3 2 0
-4272 -4273 -8282 -3 -1 2 0
-4272 -4275 -8282 -3 2 0
-4270 -4273 -8283 -1 3 0
-4270 -4274 -8283 -1 -2 3 0
-4271 -4273 -8283 -2 -1 3 0
-4271 -4274 -8283 -2 3 0
-4277 -4280 -8284 -2 1 0
-4277 -4281 -8284 -2 -3 1 0
-4278 -4280 -8284 -3 -2 1 0
-4278 -4281 -8284 -3 1 0
-4276 -4279 -8285 -1 2 0
-4276 -4281 -8285 -1 -3 2 0
-4278 -4279 -8285 -3 -1 2 0
-4278 -4281 -8285 -3 2 0
-4276 -4279 -8286 -1 3 0
-4276 -4280 -8286 -1 -2 3 0
-4277 -4279 -8286 -2 -1 3 0
-4277 -4280 -8286 -2 3 0
-4283 -4286 -8287 -2 1 0
-4283 -4287 -8287 -2 -3 1 0
-4284 -4286 -8287 -3 -2 1 0
-4284 -4287 -8287 -3 1 0
-4282 -4285 -8288 -1 2 0
-4282 -4287 -8288 -1 -3 2 0
-4284 -4285 -8288 -3 -1 2 0
-4284 -4287 -8288 -3 2 0
-4282 -4285 -8289 -1 3 0
-4282 -4286 -8289 -1 -2 3 0
-4283 -4285 -8289 -2 -1 3 0
-4283 -4286 -8289 -2 3 0
-4289 -4292 -8290 -2 1 0
-4289 -4293 -8290 -2 -3 1 0
-4290 -4292 -8290 -3 -2 1 0
-4290 -4293 -8290 -3 1 0
-4288 -4291 -8291 -1 2 0
-4288 -4293 -8291 -1 -3 2 0
-4290 -4291 -8291 -3 -1 2 0
-4290 -4293 -8291 -3 2 0
-4288 -4291 -8292 -1 3 0
-4288 -4292 -8292 -1 -2 3 0
-4289 -4291 -8292 -2 -1 3 0
-4289 -4292 -8292 -2 3 0
-4295 -4298 -8293 -2 1 0
-4295 -4299 -8293 -2 -3 1 0
-4296 -4298 -8293 -3 -2 1 0
-4296 -4299 -8293 -3 1 0
-4294 -4297 -8294 -1 2 0
-4294 -4299 -8294 -1 -3 2 0
-4296 -4297 -8294 -3 -1 2 0
-4296 -4299 -8294 -3 2 0
-4294 -4297 -8295 -1 3 0
-4294 -4298 -8295 -1 -2 3 0
-4295 -4297 -8295 -2 -1 3 0
-4295 -4298 -8295 -2 3 0
-4301 -4304 -8296 -2 1 0
-4301 -4305 -8296 -2 -3 1 0
-4302 -4304 -8296 -3 -2 1 0
-4302 -4305 -8296 -3 1 0
-4300 -4303 -8297 -1 2 0
-4300 -4305 -8297 -1 -3 2 0
-4302 -4303 -8297 -3 -1 2 0
-4302 -4305 -8297 -3 2 0
-4300 -4303 -8298 -1 3 0
-4300 -4304 -8298 -1 -2 3 0
-4301 -4303 -8298 -2 -1 3 0
-4301 -4304 -8298 -2 3 0
-4307 -4310 -8299 -2 1 0
-4307 -4311 -8299 -2 -3 1 0
-4308 -4310 -8299 -3 -2 1 0
-4308 -4311 -8299 -3 1 0
-4306 -4309 -8300 -1 2 0
-4306 -4311 -8300 -1 -3 2 0
-4308 -4309 -8300 -3 -1 2 0
-4308 -4311 -8300 -3 2 0
-4306 -4309 -8301 -1 3 0
-4306 -4310 -8301 -1 -2 3 0
-4307 -4309 -8301 -2 -1 3 0
-4307 -4310 -8301 -2 3 0
-4313 -4316 -8302 -2 1 0
-4313 -4317 -8302 -2 -3 1 0
-4314 -4316 -8302 -3 -2 1 0
-4314 -4317 -8302 -3 1 0
-4312 -4315 -8303 -1 2 0
-4312 -4317 -8303 -1 -3 2 0
-4314 -4315 -8303 -3 -1 2 0
-4314 -4317 -8303 -3 2 0
-4312 -4315 -8304 -1 3 0
-4312 -4316 -8304 -1 -2 3 0
-4313 -4315 -8304 -2 -1 3 0
-4313 -4316 -8304 -2 3 0
-4319 -4322 -8305 -2 1 0
-4319 -4323 -8305 -2 -3 1 0
-4320 -4322 -8305 -3 -2 1 0
-4320 -4323 -8305 -3 1 0
-4318 -4321 -8306 -1 2 0
-4318 -4323 -8306 -1 -3 2 0
-4320 -4321 -8306 -3 -1 2 0
-4320 -4323 -8306 -3 2 0
-4318 -4321 -8307 -1 3 0
-4318 -4322 -8307 -1 -2 3 0
-4319 -4321 -8307 -2 -1 3 0
-4319 -4322 -8307 -2 3 0
-4325 -4328 -8308 -2 1 0
-4325 -4329 -8308 -2 -3 1 0
-4326 -4328 -8308 -3 -2 1 0
-4326 -4329 -8308 -3 1 0
-4324 -4327 -8309 -1 2 0
-4324 -4329 -8309 -1 -3 2 0
-4326 -4327 -8309 -3 -1 2 0
-4326 -4329 -8309 -3 2 0
-4324 -4327 -8310 -1 3 0
-4324 -4328 -8310 -1 -2 3 0
-4325 -4327 -8310 -2 -1 3 0
-4325 -4328 -8310 -2 3 0
-4331 -4334 -8311 -2 1 0
-4331 -4335 -8311 -2 -3 1 0
-4332 -4334 -8311 -3 -2 1 0
-4332 -4335 -8311 -3 1 0
-4330 -4333 -8312 -1 2 0
-4330 -4335 -8312 -1 -3 2 0
-4332 -4333 -8312 -3 -1 2 0
-4332 -4335 -8312 -3 2 0
-4330 -4333 -8313 -1 3 0
-4330 -4334 -8313 -1 -2 3 0
-4331 -4333 -8313 -2 -1 3 0
-4331 -4334 -8313 -2 3 0
-4337 -4340 -8314 -2 1 0
-4337 -4341 -8314 -2 -3 1 0
-4338 -4340 -8314 -3 -2 1 0
-4338 -4341 -8314 -3 1 0
-4336 -4339 -8315 -1 2 0
-4336 -4341 -8315 -1 -3 2 0
-4338 -4339 -8315 -3 -1 2 0
-4338 -4341 -8315 -3 2 0
-4336 -4339 -8316 -1 3 0
-4336 -4340 -8316 -1 -2 3 0
-4337 -4339 -8316 -2 -1 3 0
-4337 -4340 -8316 -2 3 0
-4343 -4346 -8317 -2 1 0
-4343 -4347 -8317 -2 -3 1 0
-4344 -4346 -8317 -3 -2 1 0
-4344 -4347 -8317 -3 1 0
-4342 -4345 -8318 -1 2 0
-4342 -4347 -8318 -1 -3 2 0
-4344 -4345 -8318 -3 -1 2 0
-4344 -4347 -8318 -3 2 0
-4342 -4345 -8319 -1 3 0
-4342 -4346 -8319 -1 -2 3 0
-4343 -4345 -8319 -2 -1 3 0
-4343 -4346 -8319 -2 3 0
-4349 -4352 -8320 -2 1 0
-4349 -4353 -8320 -2 -3 1 0
-4350 -4352 -8320 -3 -2 1 0
-4350 -4353 -8320 -3 1 0
-4348 -4351 -8321 -1 2 0
-4348 -4353 -8321 -1 -3 2 0
-4350 -4351 -8321 -3 -1 2 0
-4350 -4353 -8321 -3 2 0
-4348 -4351 -8322 -1 3 0
-4348 -4352 -8322 -1 -2 3 0
-4349 -4351 -8322 -2 -1 3 0
-4349 -4352 -8322 -2 3 0
-4355 -4358 -8323 -2 1 0
-4355 -4359 -8323 -2 -3 1 0
-4356 -4358 -8323 -3 -2 1 0
-4356 -4359 -8323 -3 1 0
-4354 -4357 -8324 -1 2 0
-4354 -4359 -8324 -1 -3 2 0
-4356 -4357 -8324 -3 -1 2 0
-4356 -4359 -8324 -3 2 0
-4354 -4357 -8325 -1 3 0
-4354 -4358 -8325 -1 -2 3 0
-4355 -4357 -8325 -2 -1 3 0
-4355 -4358 -8325 -2 3 0
-4361 -4364 -8326 -2 1 0
-4361 -4365 -8326 -2 -3 1 0
-4362 -4364 -8326 -3 -2 1 0
-4362 -4365 -8326 -3 1 0
-4360 -4363 -8327 -1 2 0
-4360 -4365 -8327 -1 -3 2 0
-4362 -4363 -8327 -3 -1 2 0
-4362 -4365 -8327 -3 2 0
-4360 -4363 -8328 -1 3 0
-4360 -4364 -8328 -1 -2 3 0
-4361 -4363 -8328 -2 -1 3 0
-4361 -4364 -8328 -2 3 0
-4367 -4370 -8329 -2 1 0
-4367 -4371 -8329 -2 -3 1 0
-4368 -4370 -8329 -3 -2 1 0
-4368 -4371 -8329 -3 1 0
-4366 -4369 -8330 -1 2 0
-4366 -4371 -8330 -1 -3 2 0
-4368 -4369 -8330 -3 -1 2 0
-4368 -4371 -8330 -3 2 0
-4366 -4369 -8331 -1 3 0
-4366 -4370 -8331 -1 -2 3 0
-4367 -4369 -8331 -2 -1 3 0
-4367 -4370 -8331 -2 3 0
-4373 -4376 -8332 -2 1 0
-4373 -4377 -8332 -2 -3 1 0
-4374 -4376 -8332 -3 -2 1 0
-4374 -4377 -8332 -3 1 0
-4372 -4375 -8333 -1 2 0
-4372 -4377 -8333 -1 -3 2 0
-4374 -4375 -8333 -3 -1 2 0
-4374 -4377 -8333 -3 2 0
-4372 -4375 -8334 -1 3 0
-4372 -4376 -8334 -1 -2 3 0
-4373 -4375 -8334 -2 -1 3 0
-4373 -4376 -8334 -2 3 0
-4379 -4382 -8335 -2 1 0
-4379 -4383 -8335 -2 -3 1 0
-4380 -4382 -8335 -3 -2 1 0
-4380 -4383 -8335 -3 1 0
-4378 -4381 -8336 -1 2 0
-4378 -4383 -8336 -1 -3 2 0
-4380 -4381 -8336 -3 -1 2 0
-4380 -4383 -8336 -3 2 0
-4378 -4381 -8337 -1 3 0
-4378 -4382 -8337 -1 -2 3 0
-4379 -4381 -8337 -2 -1 3 0
-4379 -4382 -8337 -2 3 0
-4385 -4388 -8338 -2 1 0
-4385 -4389 -8338 -2 -3 1 0
-4386 -4388 -8338 -3 -2 1 0
-4386 -4389 -8338 -3 1 0
-4384 -4387 -8339 -1 2 0
-4384 -4389 -8339 -1 -3 2 0
-4386 -4387 -8339 -3 -1 2 0
-4386 -4389 -8339 -3 2 0
-4384 -4387 -8340 -1 3 0
-4384 -4388 -8340 -1 -2 3 0
-4385 -4387 -8340 -2 -1 3 0
-4385 -4388 -8340 -2 3 0
-4391 -4394 -8341 -2 1 0
-4391 -4395 -8341 -2 -3 1 0
-4392 -4394 -8341 -3 -2 1 0
-4392 -4395 -8341 -3 1 0
-4390 -4393 -8342 -1 2 0
-4390 -4395 -8342 -1 -3 2 0
-4392 -4393 -8342 -3 -1 2 0
-4392 -4395 -8342 -3 2 0
-4390 -4393 -8343 -1 3 0
-4390 -4394 -8343 -1 -2 3 0
-4391 -4393 -8343 -2 -1 3 0
-4391 -4394 -8343 -2 3 0
-4397 -4400 -8344 -2 1 0
-4397 -4401 -8344 -2 -3 1 0
-4398 -4400 -8344 -3 -2 1 0
-4398 -4401 -8344 -3 1 0
-4396 -4399 -8345 -1 2 0
-4396 -4401 -8345 -1 -3 2 0
-4398 -4399 -8345 -3 -1 2 0
-4398 -4401 -8345 -3 2 0
-4396 -4399 -8346 -1 3 0
-4396 -4400 -8346 -1 -2 3 0
-4397 -4399 -8346 -2 -1 3 0
-4397 -4400 -8346 -2 3 0
-4403 -4406 -8347 -2 1 0
-4403 -4407 -8347 -2 -3 1 0
-4404 -4406 -8347 -3 -2 1 0
-4404 -4407 -8347 -3 1 0
-4402 -4405 -8348 -1 2 0
-4402 -4407 -8348 -1 -3 2 0
-4404 -4405 -8348 -3 -1 2 0
-4404 -4407 -8348 -3 2 0
-4402 -4405 -8349 -1 3 0
-4402 -4406 -8349 -1 -2 3 0
-4403 -4405 -8349 -2 -1 3 0
-4403 -4406 -8349 -2 3 0
-4409 -4412 -8350 -2 1 0
-4409 -4413 -8350 -2 -3 1 0
-4410 -4412 -8350 -3 -2 1 0
-4410 -4413 -8350 -3 1 0
-4408 -4411 -8351 -1 2 0
-4408 -4413 -8351 -1 -3 2 0
-4410 -4411 -8351 -3 -1 2 0
-4410 -4413 -8351 -3 2 0
-4408 -4411 -8352 -1 3 0
-4408 -4412 -8352 -1 -2 3 0
-4409 -4411 -8352 -2 -1 3 0
-4409 -4412 -8352 -2 3 0
-4415 -4418 -8353 -2 1 0
-4415 -4419 -8353 -2 -3 1 0
-4416 -4418 -8353 -3 -2 1 0
-4416 -4419 -8353 -3 1 0
-4414 -4417 -8354 -1 2 0
-4414 -4419 -8354 -1 -3 2 0
-4416 -4417 -8354 -3 -1 2 0
-4416 -4419 -8354 -3 2 0
-4414 -4417 -8355 -1 3 0
-4414 -4418 -8355 -1 -2 3 0
-4415 -4417 -8355 -2 -1 3 0
-4415 -4418 -8355 -2 3 0
-4421 -4424 -8356 -2 1 0
-4421 -4425 -8356 -2 -3 1 0
-4422 -4424 -8356 -3 -2 1 0
-4422 -4425 -8356 -3 1 0
-4420 -4423 -8357 -1 2 0
-4420 -4425 -8357 -1 -3 2 0
-4422 -4423 -8357 -3 -1 2 0
-4422 -4425 -8357 -3 2 0
-4420 -4423 -8358 -1 3 0
-4420 -4424 -8358 -1 -2 3 0
-4421 -4423 -8358 -2 -1 3 0
-4421 -4424 -8358 -2 3 0
-4427 -4430 -8359 -2 1 0
-4427 -4431 -8359 -2 -3 1 0
-4428 -4430 -8359 -3 -2 1 0
-4428 -4431 -8359 -3 1 0
-4426 -4429 -8360 -1 2 0
-4426 -4431 -8360 -1 -3 2 0
-4428 -4429 -8360 -3 -1 2 0
-4428 -4431 -8360 -3 2 0
-4426 -4429 -8361 -1 3 0
-4426 -4430 -8361 -1 -2 3 0
-4427 -4429 -8361 -2 -1 3 0
-4427 -4430 -8361 -2 3 0
-4433 -4436 -8362 -2 1 0
-4433 -4437 -8362 -2 -3 1 0
-4434 -4436 -8362 -3 -2 1 0
-4434 -4437 -8362 -3 1 0
-4432 -4435 -8363 -1 2 0
-4432 -4437 -8363 -1 -3 2 0
-4434 -4435 -8363 -3 -1 2 0
-4434 -4437 -8363 -3 2 0
-4432 -4435 -8364 -1 3 0
-4432 -4436 -8364 -1 -2 3 0
-4433 -4435 -8364 -2 -1 3 0
-4433 -4436 -8364 -2 3 0
-4439 -4442 -8365 -2 1 0
-4439 -4443 -8365 -2 -3 1 0
-4440 -4442 -8365 -3 -2 1 0
-4440 -4443 -8365 -3 1 0
-4438 -4441 -8366 -1 2 0
-4438 -4443 -8366 -1 -3 2 0
-4440 -4441 -8366 -3 -1 2 0
-4440 -4443 -8366 -3 2 0
-4438 -4441 -8367 -1 3 0
-4438 -4442 -8367 -1 -2 3 0
-4439 -4441 -8367 -2 -1 3 0
-4439 -4442 -8367 -2 3 0
-4445 -4448 -8368 -2 1 0
-4445 -4449 -8368 -2 -3 1 0
-4446 -4448 -8368 -3 -2 1 0
-4446 -4449 -8368 -3 1 0
-4444 -4447 -8369 -1 2 0
-4444 -4449 -8369 -1 -3 2 0
-4446 -4447 -8369 -3 -1 2 0
-4446 -4449 -8369 -3 2 0
-4444 -4447 -8370 -1 3 0
-4444 -4448 -8370 -1 -2 3 0
-4445 -4447 -8370 -2 -1 3 0
-4445 -4448 -8370 -2 3 0
-4451 -4454 -8371 -2 1 0
-4451 -4455 -8371 -2 -3 1 0
-4452 -4454 -8371 -3 -2 1 0
-4452 -4455 -8371 -3 1 0
-4450 -4453 -8372 -1 2 0
-4450 -4455 -8372 -1 -3 2 0
-4452 -4453 -8372 -3 -1 2 0
-4452 -4455 -8372 -3 2 0
-4450 -4453 -8373 -1 3 0
-4450 -4454 -8373 -1 -2 3 0
-4451 -4453 -8373 -2 -1 3 0
-4451 -4454 -8373 -2 3 0
-4457 -4460 -8374 -2 1 0
-4457 -4461 -8374 -2 -3 1 0
-4458 -4460 -8374 -3 -2 1 0
-4458 -4461 -8374 -3 1 0
-4456 -4459 -8375 -1 2 0
-4456 -4461 -8375 -1 -3 2 0
-4458 -4459 -8375 -3 -1 2 0
-4458 -4461 -8375 -3 2 0
-4456 -4459 -8376 -1 3 0
-4456 -4460 -8376 -1 -2 3 0
-4457 -4459 -8376 -2 -1 3 0
-4457 -4460 -8376 -2 3 0
-4463 -4466 -8377 -2 1 0
-4463 -4467 -8377 -2 -3 1 0
-4464 -4466 -8377 -3 -2 1 0
-4464 -4467 -8377 -3 1 0
-4462 -4465 -8378 -1 2 0
-4462 -4467 -8378 -1 -3 2 0
-4464 -4465 -8378 -3 -1 2 0
-4464 -4467 -8378 -3 2 0
-4462 -4465 -8379 -1 3 0
-4462 -4466 -8379 -1 -2 3 0
-4463 -4465 -8379 -2 -1 3 0
-4463 -4466 -8379 -2 3 0
-4469 -4472 -8380 -2 1 0
-4469 -4473 -8380 -2 -3 1 0
-4470 -4472 -8380 -3 -2 1 0
-4470 -4473 -8380 -3 1 0
-4468 -4471 -8381 -1 2 0
-4468 -4473 -8381 -1 -3 2 0
-4470 -4471 -8381 -3 -1 2 0
-4470 -4473 -8381 -3 2 0
-4468 -4471 -8382 -1 3 0
-4468 -4472 -8382 -1 -2 3 0
-4469 -4471 -8382 -2 -1 3 0
-4469 -4472 -8382 -2 3 0
-4475 -4478 -8383 -2 1 0
-4475 -4479 -8383 -2 -3 1 0
-4476 -4478 -8383 -3 -2 1 0
-4476 -4479 -8383 -3 1 0
-4474 -4477 -8384 -1 2 0
-4474 -4479 -8384 -1 -3 2 0
-4476 -4477 -8384 -3 -1 2 0
-4476 -4479 -8384 -3 2 0
-4474 -4477 -8385 -1 3 0
-4474 -4478 -8385 -1 -2 3 0
-4475 -4477 -8385 -2 -1 3 0
-4475 -4478 -8385 -2 3 0
-4481 -4484 -8386 -2 1 0
-4481 -4485 -8386 -2 -3 1 0
-4482 -4484 -8386 -3 -2 1 0
-4482 -4485 -8386 -3 1 0
-4480 -4483 -8387 -1 2 0
-4480 -4485 -8387 -1 -3 2 0
-4482 -4483 -8387 -3 -1 2 0
-4482 -4485 -8387 -3 2 0
-4480 -4483 -8388 -1 3 0
-4480 -4484 -8388 -1 -2 3 0
-4481 -4483 -8388 -2 -1 3 0
-4481 -4484 -8388 -2 3 0
-4487 -4490 -8389 -2 1 0
-4487 -4491 -8389 -2 -3 1 0
-4488 -4490 -8389 -3 -2 1 0
-4488 -4491 -8389 -3 1 0
-4486 -4489 -8390 -1 2 0
-4486 -4491 -8390 -1 -3 2 0
-4488 -4489 -8390 -3 -1 2 0
-4488 -4491 -8390 -3 2 0
-4486 -4489 -8391 -1 3 0
-4486 -4490 -8391 -1 -2 3 0
-4487 -4489 -8391 -2 -1 3 0
-4487 -4490 -8391 -2 3 0
-4493 -4496 -8392 -2 1 0
-4493 -4497 -8392 -2 -3 1 0
-4494 -4496 -8392 -3 -2 1 0
-4494 -4497 -8392 -3 1 0
-4492 -4495 -8393 -1 2 0
-4492 -4497 -8393 -1 -3 2 0
-4494 -4495 -8393 -3 -1 2 0
-4494 -4497 -8393 -3 2 0
-4492 -4495 -8394 -1 3 0
-4492 -4496 -8394 -1 -2 3 0
-4493 -4495 -8394 -2 -1 3 0
-4493 -4496 -8394 -2 3 0
-4499 -4502 -8395 -2 1 0
-4499 -4503 -8395 -2 -3 1 0
-4500 -4502 -8395 -3 -2 1 0
-4500 -4503 -8395 -3 1 0
-4498 -4501 -8396 -1 2 0
-4498 -4503 -8396 -1 -3 2 0
-4500 -4501 -8396 -3 -1 2 0
-4500 -4503 -8396 -3 2 0
-4498 -4501 -8397 -1 3 0
-4498 -4502 -8397 -1 -2 3 0
-4499 -4501 -8397 -2 -1 3 0
-4499 -4502 -8397 -2 3 0
-4505 -4508 -8398 -2 1 0
-4505 -4509 -8398 -2 -3 1 0
-4506 -4508 -8398 -3 -2 1 0
-4506 -4509 -8398 -3 1 0
-4504 -4507 -8399 -1 2 0
-4504 -4509 -8399 -1 -3 2 0
-4506 -4507 -8399 -3 -1 2 0
-4506 -4509 -8399 -3 2 0
-4504 -4507 -8400 -1 3 0
-4504 -4508 -8400 -1 -2 3 0
-4505 -4507 -8400 -2 -1 3 0
-4505 -4508 -8400 -2 3 0
-4511 -4514 -8401 -2 1 0
-4511 -4515 -8401 -2 -3 1 0
-4512 -4514 -8401 -3 -2 1 0
-4512 -4515 -8401 -3 1 0
-4510 -4513 -8402 -1 2 0
-4510 -4515 -8402 -1 -3 2 0
-4512 -4513 -8402 -3 -1 2 0
-4512 -4515 -8402 -3 2 0
-4510 -4513 -8403 -1 3 0
-4510 -4514 -8403 -1 -2 3 0
-4511 -4513 -8403 -2 -1 3 0
-4511 -4514 -8403 -2 3 0
-4517 -4520 -8404 -2 1 0
-4517 -4521 -8404 -2 -3 1 0
-4518 -4520 -8404 -3 -2 1 0
-4518 -4521 -8404 -3 1 0
-4516 -4519 -8405 -1 2 0
-4516 -4521 -8405 -1 -3 2 0
-4518 -4519 -8405 -3 -1 2 0
-4518 -4521 -8405 -3 2 0
-4516 -4519 -8406 -1 3 0
-4516 -4520 -8406 -1 -2 3 0
-4517 -4519 -8406 -2 -1 3 0
-4517 -4520 -8406 -2 3 0
-4523 -4526 -8407 -2 1 0
-4523 -4527 -8407 -2 -3 1 0
-4524 -4526 -8407 -3 -2 1 0
-4524 -4527 -8407 -3 1 0
-4522 -4525 -8408 -1 2 0
-4522 -4527 -8408 -1 -3 2 0
-4524 -4525 -8408 -3 -1 2 0
-4524 -4527 -8408 -3 2 0
-4522 -4525 -8409 -1 3 0
-4522 -4526 -8409 -1 -2 3 0
-4523 -4525 -8409 -2 -1 3 0
-4523 -4526 -8409 -2 3 0
-4529 -4532 -8410 -2 1 0
-4529 -4533 -8410 -2 -3 1 0
-4530 -4532 -8410 -3 -2 1 0
-4530 -4533 -8410 -3 1 0
-4528 -4531 -8411 -1 2 0
-4528 -4533 -8411 -1 -3 2 0
-4530 -4531 -8411 -3 -1 2 0
-4530 -4533 -8411 -3 2 0
-4528 -4531 -8412 -1 3 0
-4528 -4532 -8412 -1 -2 3 0
-4529 -4531 -8412 -2 -1 3 0
-4529 -4532 -8412 -2 3 0
-4535 -4538 -8413 -2 1 0
-4535 -4539 -8413 -2 -3 1 0
-4536 -4538 -8413 -3 -2 1 0
-4536 -4539 -8413 -3 1 0
-4534 -4537 -8414 -1 2 0
-4534 -4539 -8414 -1 -3 2 0
-4536 -4537 -8414 -3 -1 2 0
-4536 -4539 -8414 -3 2 0
-4534 -4537 -8415 -1 3 0
-4534 -4538 -8415 -1 -2 3 0
-4535 -4537 -8415 -2 -1 3 0
-4535 -4538 -8415 -2 3 0
-4541 -4544 -8416 -2 1 0
-4541 -4545 -8416 -2 -3 1 0
-4542 -4544 -8416 -3 -2 1 0
-4542 -4545 -8416 -3 1 0
-4540 -4543 -8417 -1 2 0
-4540 -4545 -8417 -1 -3 2 0
-4542 -4543 -8417 -3 -1 2 0
-4542 -4545 -8417 -3 2 0
-4540 -4543 -8418 -1 3 0
-4540 -4544 -8418 -1 -2 3 0
-4541 -4543 -8418 -2 -1 3 0
-4541 -4544 -8418 -2 3 0
-4547 -4550 -8419 -2 1 0
-4547 -4551 -8419 -2 -3 1 0
-4548 -4550 -8419 -3 -2 1 0
-4548 -4551 -8419 -3 1 0
-4546 -4549 -8420 -1 2 0
-4546 -4551 -8420 -1 -3 2 0
-4548 -4549 -8420 -3 -1 2 0
-4548 -4551 -8420 -3 2 0
-4546 -4549 -8421 -1 3 0
-4546 -4550 -8421 -1 -2 3 0
-4547 -4549 -8421 -2 -1 3 0
-4547 -4550 -8421 -2 3 0
-4553 -4556 -8422 -2 1 0
-4553 -4557 -8422 -2 -3 1 0
-4554 -4556 -8422 -3 -2 1 0
-4554 -4557 -8422 -3 1 0
-4552 -4555 -8423 -1 2 0
-4552 -4557 -8423 -1 -3 2 0
-4554 -4555 -8423 -3 -1 2 0
-4554 -4557 -8423 -3 2 0
-4552 -4555 -8424 -1 3 0
-4552 -4556 -8424 -1 -2 3 0
-4553 -4555 -8424 -2 -1 3 0
-4553 -4556 -8424 -2 3 0
-4559 -4562 -8425 -2 1 0
-4559 -4563 -8425 -2 -3 1 0
-4560 -4562 -8425 -3 -2 1 0
-4560 -4563 -8425 -3 1 0
-4558 -4561 -8426 -1 2 0
-4558 -4563 -8426 -1 -3 2 0
-4560 -4561 -8426 -3 -1 2 0
-4560 -4563 -8426 -3 2 0
-4558 -4561 -8427 -1 3 0
-4558 -4562 -8427 -1 -2 3 0
-4559 -4561 -8427 -2 -1 3 0
-4559 -4562 -8427 -2 3 0
-4565 -4568 -8428 -2 1 0
-4565 -4569 -8428 -2 -3 1 0
-4566 -4568 -8428 -3 -2 1 0
-4566 -4569 -8428 -3 1 0
-4564 -4567 -8429 -1 2 0
-4564 -4569 -8429 -1 -3 2 0
-4566 -4567 -8429 -3 -1 2 0
-4566 -4569 -8429 -3 2 0
-4564 -4567 -8430 -1 3 0
-4564 -4568 -8430 -1 -2 3 0
-4565 -4567 -8430 -2 -1 3 0
-4565 -4568 -8430 -2 3 0
-4571 -4574 -8431 -2 1 0
-4571 -4575 -8431 -2 -3 1 0
-4572 -4574 -8431 -3 -2 1 0
-4572 -4575 -8431 -3 1 0
-4570 -4573 -8432 -1 2 0
-4570 -4575 -8432 -1 -3 2 0
-4572 -4573 -8432 -3 -1 2 0
-4572 -4575 -8432 -3 2 0
-4570 -4573 -8433 -1 3 0
-4570 -4574 -8433 -1 -2 3 0
-4571 -4573 -8433 -2 -1 3 0
-4571 -4574 -8433 -2 3 0
-4577 -4580 -8434 -2 1 0
-4577 -4581 -8434 -2 -3 1 0
-4578 -4580 -8434 -3 -2 1 0
-4578 -4581 -8434 -3 1 0
-4576 -4579 -8435 -1 2 0
-4576 -4581 -8435 -1 -3 2 0
-4578 -4579 -8435 -3 -1 2 0
-4578 -4581 -8435 -3 2 0
-4576 -4579 -8436 -1 3 0
-4576 -4580 -8436 -1 -2 3 0
-4577 -4579 -8436 -2 -1 3 0
-4577 -4580 -8436 -2 3 0
-4583 -4586 -8437 -2 1 0
-4583 -4587 -8437 -2 -3 1 0
-4584 -4586 -8437 -3 -2 1 0
-4584 -4587 -8437 -3 1 0
-4582 -4585 -8438 -1 2 0
-4582 -4587 -8438 -1 -3 2 0
-4584 -4585 -8438 -3 -1 2 0
-4584 -4587 -8438 -3 2 0
-4582 -4585 -8439 -1 3 0
-4582 -4586 -8439 -1 -2 3 0
-4583 -4585 -8439 -2 -1 3 0
-4583 -4586 -8439 -2 3 0
-4589 -4592 -8440 -2 1 0
-4589 -4593 -8440 -2 -3 1 0
-4590 -4592 -8440 -3 -2 1 0
-4590 -4593 -8440 -3 1 0
-4588 -4591 -8441 -1 2 0
-4588 -4593 -8441 -1 -3 2 0
-4590 -4591 -8441 -3 -1 2 0
-4590 -4593 -8441 -3 2 0
-4588 -4591 -8442 -1 3 0
-4588 -4592 -8442 -1 -2 3 0
-4589 -4591 -8442 -2 -1 3 0
-4589 -4592 -8442 -2 3 0
-4595 -4598 -8443 -2 1 0
-4595 -4599 -8443 -2 -3 1 0
-4596 -4598 -8443 -3 -2 1 0
-4596 -4599 -8443 -3 1 0
-4594 -4597 -8444 -1 2 0
-4594 -4599 -8444 -1 -3 2 0
-4596 -4597 -8444 -3 -1 2 0
-4596 -4599 -8444 -3 2 0
-4594 -4597 -8445 -1 3 0
-4594 -4598 -8445 -1 -2 3 0
-4595 -4597 -8445 -2 -1 3 0
-4595 -4598 -8445 -2 3 0
-4601 -4604 -8446 -2 1 0
-4601 -4605 -8446 -2 -3 1 0
-4602 -4604 -8446 -3 -2 1 0
-4602 -4605 -8446 -3 1 0
-4600 -4603 -8447 -1 2 0
-4600 -4605 -8447 -1 -3 2 0
-4602 -4603 -8447 -3 -1 2 0
-4602 -4605 -8447 -3 2 0
-4600 -4603 -8448 -1 3 0
-4600 -4604 -8448 -1 -2 3 0
-4601 -4603 -8448 -2 -1 3 0
-4601 -4604 -8448 -2 3 0
-4607 -4610 -8449 -2 1 0
-4607 -4611 -8449 -2 -3 1 0
-4608 -4610 -8449 -3 -2 1 0
-4608 -4611 -8449 -3 1 0
-4606 -4609 -8450 -1 2 0
-4606 -4611 -8450 -1 -3 2 0
-4608 -4609 -8450 -3 -1 2 0
-4608 -4611 -8450 -3 2 0
-4606 -4609 -8451 -1 3 0
-4606 -4610 -8451 -1 -2 3 0
-4607 -4609 -8451 -2 -1 3 0
-4607 -4610 -8451 -2 3 0
-4613 -4616 -8452 -2 1 0
-4613 -4617 -8452 -2 -3 1 0
-4614 -4616 -8452 -3 -2 1 0
-4614 -4617 -8452 -3 1 0
-4612 -4615 -8453 -1 2 0
-4612 -4617 -8453 -1 -3 2 0
-4614 -4615 -8453 -3 -1 2 0
-4614 -4617 -8453 -3 2 0
-4612 -4615 -8454 -1 3 0
-4612 -4616 -8454 -1 -2 3 0
-4613 -4615 -8454 -2 -1 3 0
-4613 -4616 -8454 -2 3 0
-4619 -4622 -8455 -2 1 0
-4619 -4623 -8455 -2 -3 1 0
-4620 -4622 -8455 -3 -2 1 0
-4620 -4623 -8455 -3 1 0
-4618 -4621 -8456 -1 2 0
-4618 -4623 -8456 -1 -3 2 0
-4620 -4621 -8456 -3 -1 2 0
-4620 -4623 -8456 -3 2 0
-4618 -4621 -8457 -1 3 0
-4618 -4622 -8457 -1 -2 3 0
-4619 -4621 -8457 -2 -1 3 0
-4619 -4622 -8457 -2 3 0
-4625 -4628 -8458 -2 1 0
-4625 -4629 -8458 -2 -3 1 0
-4626 -4628 -8458 -3 -2 1 0
-4626 -4629 -8458 -3 1 0
-4624 -4627 -8459 -1 2 0
-4624 -4629 -8459 -1 -3 2 0
-4626 -4627 -8459 -3 -1 2 0
-4626 -4629 -8459 -3 2 0
-4624 -4627 -8460 -1 3 0
-4624 -4628 -8460 -1 -2 3 0
-4625 -4627 -8460 -2 -1 3 0
-4625 -4628 -8460 -2 3 0
-4631 -4634 -8461 -2 1 0
-4631 -4635 -8461 -2 -3 1 0
-4632 -4634 -8461 -3 -2 1 0
-4632 -4635 -8461 -3 1 0
-4630 -4633 -8462 -1 2 0
-4630 -4635 -8462 -1 -3 2 0
-4632 -4633 -8462 -3 -1 2 0
-4632 -4635 -8462 -3 2 0
-4630 -4633 -8463 -1 3 0
-4630 -4634 -8463 -1 -2 3 0
-4631 -4633 -8463 -2 -1 3 0
-4631 -4634 -8463 -2 3 0
-4637 -4640 -8464 -2 1 0
-4637 -4641 -8464 -2 -3 1 0
-4638 -4640 -8464 -3 -2 1 0
-4638 -4641 -8464 -3 1 0
-4636 -4639 -8465 -1 2 0
-4636 -4641 -8465 -1 -3 2 0
-4638 -4639 -8465 -3 -1 2 0
-4638 -4641 -8465 -3 2 0
-4636 -4639 -8466 -1 3 0
-4636 -4640 -8466 -1 -2 3 0
-4637 -4639 -8466 -2 -1 3 0
-4637 -4640 -8466 -2 3 0
-4643 -4646 -8467 -2 1 0
-4643 -4647 -8467 -2 -3 1 0
-4644 -4646 -8467 -3 -2 1 0
-4644 -4647 -8467 -3 1 0
-4642 -4645 -8468 -1 2 0
-4642 -4647 -8468 -1 -3 2 0
-4644 -4645 -8468 -3 -1 2 0
-4644 -4647 -8468 -3 2 0
-4642 -4645 -8469 -1 3 0
-4642 -4646 -8469 -1 -2 3 0
-4643 -4645 -8469 -2 -1 3 0
-4643 -4646 -8469 -2 3 0
-4649 -4652 -8470 -2 1 0
-4649 -4653 -8470 -2 -3 1 0
-4650 -4652 -8470 -3 -2 1 0
-4650 -4653 -8470 -3 1 0
-4648 -4651 -8471 -1 2 0
-4648 -4653 -8471 -1 -3 2 0
-4650 -4651 -8471 -3 -1 2 0
-4650 -4653 -8471 -3 2 0
-4648 -4651 -8472 -1 3 0
-4648 -4652 -8472 -1 -2 3 0
-4649 -4651 -8472 -2 -1 3 0
-4649 -4652 -8472 -2 3 0
-4655 -4658 -8473 -2 1 0
-4655 -4659 -8473 -2 -3 1 0
-4656 -4658 -8473 -3 -2 1 0
-4656 -4659 -8473 -3 1 0
-4654 -4657 -8474 -1 2 0
-4654 -4659 -8474 -1 -3 2 0
-4656 -4657 -8474 -3 -1 2 0
-4656 -4659 -8474 -3 2 0
-4654 -4657 -8475 -1 3 0
-4654 -4658 -8475 -1 -2 3 0
-4655 -4657 -8475 -2 -1 3 0
-4655 -4658 -8475 -2 3 0
-4661 -4664 -8476 -2 1 0
-4661 -4665 -8476 -2 -3 1 0
-4662 -4664 -8476 -3 -2 1 0
-4662 -4665 -8476 -3 1 0
-4660 -4663 -8477 -1 2 0
-4660 -4665 -8477 -1 -3 2 0
-4662 -4663 -8477 -3 -1 2 0
-4662 -4665 -8477 -3 2 0
-4660 -4663 -8478 -1 3 0
-4660 -4664 -8478 -1 -2 3 0
-4661 -4663 -8478 -2 -1 3 0
-4661 -4664 -8478 -2 3 0
-4667 -4670 -8479 -2 1 0
-4667 -4671 -8479 -2 -3 1 0
-4668 -4670 -8479 -3 -2 1 0
-4668 -4671 -8479 -3 1 0
-4666 -4669 -8480 -1 2 0
-4666 -4671 -8480 -1 -3 2 0
-4668 -4669 -8480 -3 -1 2 0
-4668 -4671 -8480 -3 2 0
-4666 -4669 -8481 -1 3 0
-4666 -4670 -8481 -1 -2 3 0
-4667 -4669 -8481 -2 -1 3 0
-4667 -4670 -8481 -2 3 0
-4673 -4676 -8482 -2 1 0
-4673 -4677 -8482 -2 -3 1 0
-4674 -4676 -8482 -3 -2 1 0
-4674 -4677 -8482 -3 1 0
-4672 -4675 -8483 -1 2 0
-4672 -4677 -8483 -1 -3 2 0
-4674 -4675 -8483 -3 -1 2 0
-4674 -4677 -8483 -3 2 0
-4672 -4675 -8484 -1 3 0
-4672 -4676 -8484 -1 -2 3 0
-4673 -4675 -8484 -2 -1 3 0
-4673 -4676 -8484 -2 3 0
-4679 -4682 -8485 -2 1 0
-4679 -4683 -8485 -2 -3 1 0
-4680 -4682 -8485 -3 -2 1 0
-4680 -4683 -8485 -3 1 0
-4678 -4681 -8486 -1 2 0
-4678 -4683 -8486 -1 -3 2 0
-4680 -4681 -8486 -3 -1 2 0
-4680 -4683 -8486 -3 2 0
-4678 -4681 -8487 -1 3 0
-4678 -4682 -8487 -1 -2 3 0
-4679 -4681 -8487 -2 -1 3 0
-4679 -4682 -8487 -2 3 0
-4685 -4688 -8488 -2 1 0
-4685 -4689 -8488 -2 -3 1 0
-4686 -4688 -8488 -3 -2 1 0
-4686 -4689 -8488 -3 1 0
-4684 -4687 -8489 -1 2 0
-4684 -4689 -8489 -1 -3 2 0
-4686 -4687 -8489 -3 -1 2 0
-4686 -4689 -8489 -3 2 0
-4684 -4687 -8490 -1 3 0
-4684 -4688 -8490 -1 -2 3 0
-4685 -4687 -8490 -2 -1 3 0
-4685 -4688 -8490 -2 3 0
-4691 -4694 -8491 -2 1 0
-4691 -4695 -8491 -2 -3 1 0
-4692 -4694 -8491 -3 -2 1 0
-4692 -4695 -8491 -3 1 0
-4690 -4693 -8492 -1 2 0
-4690 -4695 -8492 -1 -3 2 0
-4692 -4693 -8492 -3 -1 2 0
-4692 -4695 -8492 -3 2 0
-4690 -4693 -8493 -1 3 0
-4690 -4694 -8493 -1 -2 3 0
-4691 -4693 -8493 -2 -1 3 0
-4691 -4694 -8493 -2 3 0
-4697 -4700 -8494 -2 1 0
-4697 -4701 -8494 -2 -3 1 0
-4698 -4700 -8494 -3 -2 1 0
-4698 -4701 -8494 -3 1 0
-4696 -4699 -8495 -1 2 0
-4696 -4701 -8495 -1 -3 2 0
-4698 -4699 -8495 -3 -1 2 0
-4698 -4701 -8495 -3 2 0
-4696 -4699 -8496 -1 3 0
-4696 -4700 -8496 -1 -2 3 0
-4697 -4699 -8496 -2 -1 3 0
-4697 -4700 -8496 -2 3 0
-4703 -4706 -8497 -2 1 0
-4703 -4707 -8497 -2 -3 1 0
-4704 -4706 -8497 -3 -2 1 0
-4704 -4707 -8497 -3 1 0
-4702 -4705 -8498 -1 2 0
-4702 -4707 -8498 -1 -3 2 0
-4704 -4705 -8498 -3 -1 2 0
-4704 -4707 -8498 -3 2 0
-4702 -4705 -8499 -1 3 0
-4702 -4706 -8499 -1 -2 3 0
-4703 -4705 -8499 -2 -1 3 0
-4703 -4706 -8499 -2 3 0
-4709 -4712 -8500 -2 1 0
-4709 -4713 -8500 -2 -3 1 0
-4710 -4712 -8500 -3 -2 1 0
-4710 -4713 -8500 -3 1 0
-4708 -4711 -8501 -1 2 0
-4708 -4713 -8501 -1 -3 2 0
-4710 -4711 -8501 -3 -1 2 0
-4710 -4713 -8501 -3 2 0
-4708 -4711 -8502 -1 3 0
-4708 -4712 -8502 -1 -2 3 0
-4709 -4711 -8502 -2 -1 3 0
-4709 -4712 -8502 -2 3 0
-4715 -4718 -8503 -2 1 0
-4715 -4719 -8503 -2 -3 1 0
-4716 -4718 -8503 -3 -2 1 0
-4716 -4719 -8503 -3 1 0
-4714 -4717 -8504 -1 2 0
-4714 -4719 -8504 -1 -3 2 0
-4716 -4717 -8504 -3 -1 2 0
-4716 -4719 -8504 -3 2 0
-4714 -4717 -8505 -1 3 0
-4714 -4718 -8505 -1 -2 3 0
-4715 -4717 -8505 -2 -1 3 0
-4715 -4718 -8505 -2 3 0
-4721 -4724 -8506 -2 1 0
-4721 -4725 -8506 -2 -3 1 0
-4722 -4724 -8506 -3 -2 1 0
-4722 -4725 -8506 -3 1 0
-4720 -4723 -8507 -1 2 0
-4720 -4725 -8507 -1 -3 2 0
-4722 -4723 -8507 -3 -1 2 0
-4722 -4725 -8507 -3 2 0
-4720 -4723 -8508 -1 3 0
-4720 -4724 -8508 -1 -2 3 0
-4721 -4723 -8508 -2 -1 3 0
-4721 -4724 -8508 -2 3 0
-4727 -4730 -8509 -2 1 0
-4727 -4731 -8509 -2 -3 1 0
-4728 -4730 -8509 -3 -2 1 0
-4728 -4731 -8509 -3 1 0
-4726 -4729 -8510 -1 2 0
-4726 -4731 -8510 -1 -3 2 0
-4728 -4729 -8510 -3 -1 2 0
-4728 -4731 -8510 -3 2 0
-4726 -4729 -8511 -1 3 0
-4726 -4730 -8511 -1 -2 3 0
-4727 -4729 -8511 -2 -1 3 0
-4727 -4730 -8511 -2 3 0
-4733 -4736 -8512 -2 1 0
-4733 -4737 -8512 -2 -3 1 0
-4734 -4736 -8512 -3 -2 1 0
-4734 -4737 -8512 -3 1 0
-4732 -4735 -8513 -1 2 0
-4732 -4737 -8513 -1 -3 2 0
-4734 -4735 -8513 -3 -1 2 0
-4734 -4737 -8513 -3 2 0
-4732 -4735 -8514 -1 3 0
-4732 -4736 -8514 -1 -2 3 0
-4733 -4735 -8514 -2 -1 3 0
-4733 -4736 -8514 -2 3 0
-4739 -4742 -8515 -2 1 0
-4739 -4743 -8515 -2 -3 1 0
-4740 -4742 -8515 -3 -2 1 0
-4740 -4743 -8515 -3 1 0
-4738 -4741 -8516 -1 2 0
-4738 -4743 -8516 -1 -3 2 0
-4740 -4741 -8516 -3 -1 2 0
-4740 -4743 -8516 -3 2 0
-4738 -4741 -8517 -1 3 0
-4738 -4742 -8517 -1 -2 3 0
-4739 -4741 -8517 -2 -1 3 0
-4739 -4742 -8517 -2 3 0
-4745 -4748 -8518 -2 1 0
-4745 -4749 -8518 -2 -3 1 0
-4746 -4748 -8518 -3 -2 1 0
-4746 -4749 -8518 -3 1 0
-4744 -4747 -8519 -1 2 0
-4744 -4749 -8519 -1 -3 2 0
-4746 -4747 -8519 -3 -1 2 0
-4746 -4749 -8519 -3 2 0
-4744 -4747 -8520 -1 3 0
-4744 -4748 -8520 -1 -2 3 0
-4745 -4747 -8520 -2 -1 3 0
-4745 -4748 -8520 -2 3 0
-4751 -4754 -8521 -2 1 0
-4751 -4755 -8521 -2 -3 1 0
-4752 -4754 -8521 -3 -2 1 0
-4752 -4755 -8521 -3 1 0
-4750 -4753 -8522 -1 2 0
-4750 -4755 -8522 -1 -3 2 0
-4752 -4753 -8522 -3 -1 2 0
-4752 -4755 -8522 -3 2 0
-4750 -4753 -8523 -1 3 0
-4750 -4754 -8523 -1 -2 3 0
-4751 -4753 -8523 -2 -1 3 0
-4751 -4754 -8523 -2 3 0
-4757 -4760 -8524 -2 1 0
-4757 -4761 -8524 -2 -3 1 0
-4758 -4760 -8524 -3 -2 1 0
-4758 -4761 -8524 -3 1 0
-4756 -4759 -8525 -1 2 0
-4756 -4761 -8525 -1 -3 2 0
-4758 -4759 -8525 -3 -1 2 0
-4758 -4761 -8525 -3 2 0
-4756 -4759 -8526 -1 3 0
-4756 -4760 -8526 -1 -2 3 0
-4757 -4759 -8526 -2 -1 3 0
-4757 -4760 -8526 -2 3 0
-4763 -4766 -8527 -2 1 0
-4763 -4767 -8527 -2 -3 1 0
-4764 -4766 -8527 -3 -2 1 0
-4764 -4767 -8527 -3 1 0
-4762 -4765 -8528 -1 2 0
-4762 -4767 -8528 -1 -3 2 0
-4764 -4765 -8528 -3 -1 2 0
-4764 -4767 -8528 -3 2 0
-4762 -4765 -8529 -1 3 0
-4762 -4766 -8529 -1 -2 3 0
-4763 -4765 -8529 -2 -1 3 0
-4763 -4766 -8529 -2 3 0
-4769 -4772 -8530 -2 1 0
-4769 -4773 -8530 -2 -3 1 0
-4770 -4772 -8530 -3 -2 1 0
-4770 -4773 -8530 -3 1 0
-4768 -4771 -8531 -1 2 0
-4768 -4773 -8531 -1 -3 2 0
-4770 -4771 -8531 -3 -1 2 0
-4770 -4773 -8531 -3 2 0
-4768 -4771 -8532 -1 3 0
-4768 -4772 -8532 -1 -2 3 0
-4769 -4771 -8532 -2 -1 3 0
-4769 -4772 -8532 -2 3 0
-4775 -4778 -8533 -2 1 0
-4775 -4779 -8533 -2 -3 1 0
-4776 -4778 -8533 -3 -2 1 0
-4776 -4779 -8533 -3 1 0
-4774 -4777 -8534 -1 2 0
-4774 -4779 -8534 -1 -3 2 0
-4776 -4777 -8534 -3 -1 2 0
-4776 -4779 -8534 -3 2 0
-4774 -4777 -8535 -1 3 0
-4774 -4778 -8535 -1 -2 3 0
-4775 -4777 -8535 -2 -1 3 0
-4775 -4778 -8535 -2 3 0
-4781 -4784 -8536 -2 1 0
-4781 -4785 -8536 -2 -3 1 0
-4782 -4784 -8536 -3 -2 1 0
-4782 -4785 -8536 -3 1 0
-4780 -4783 -8537 -1 2 0
-4780 -4785 -8537 -1 -3 2 0
-4782 -4783 -8537 -3 -1 2 0
-4782 -4785 -8537 -3 2 0
-4780 -4783 -8538 -1 3 0
-4780 -4784 -8538 -1 -2 3 0
-4781 -4783 -8538 -2 -1 3 0
-4781 -4784 -8538 -2 3 0
-4787 -4790 -8539 -2 1 0
-4787 -4791 -8539 -2 -3 1 0
-4788 -4790 -8539 -3 -2 1 0
-4788 -4791 -8539 -3 1 0
-4786 -4789 -8540 -1 2 0
-4786 -4791 -8540 -1 -3 2 0
-4788 -4789 -8540 -3 -1 2 0
-4788 -4791 -8540 -3 2 0
-4786 -4789 -8541 -1 3 0
-4786 -4790 -8541 -1 -2 3 0
-4787 -4789 -8541 -2 -1 3 0
-4787 -4790 -8541 -2 3 0
-4793 -4796 -8542 -2 1 0
-4793 -4797 -8542 -2 -3 1 0
-4794 -4796 -8542 -3 -2 1 0
-4794 -4797 -8542 -3 1 0
-4792 -4795 -8543 -1 2 0
-4792 -4797 -8543 -1 -3 2 0
-4794 -4795 -8543 -3 -1 2 0
-4794 -4797 -8543 -3 2 0
-4792 -4795 -8544 -1 3 0
-4792 -4796 -8544 -1 -2 3 0
-4793 -4795 -8544 -2 -1 3 0
-4793 -4796 -8544 -2 3 0
-4799 -4802 -8545 -2 1 0
-4799 -4803 -8545 -2 -3 1 0
-4800 -4802 -8545 -3 -2 1 0
-4800 -4803 -8545 -3 1 0
-4798 -4801 -8546 -1 2 0
-4798 -4803 -8546 -1 -3 2 0
-4800 -4801 -8546 -3 -1 2 0
-4800 -4803 -8546 -3 2 0
-4798 -4801 -8547 -1 3 0
-4798 -4802 -8547 -1 -2 3 0
-4799 -4801 -8547 -2 -1 3 0
-4799 -4802 -8547 -2 3 0
-4805 -4808 -8548 -2 1 0
-4805 -4809 -8548 -2 -3 1 0
-4806 -4808 -8548 -3 -2 1 0
-4806 -4809 -8548 -3 1 0
-4804 -4807 -8549 -1 2 0
-4804 -4809 -8549 -1 -3 2 0
-4806 -4807 -8549 -3 -1 2 0
-4806 -4809 -8549 -3 2 0
-4804 -4807 -8550 -1 3 0
-4804 -4808 -8550 -1 -2 3 0
-4805 -4807 -8550 -2 -1 3 0
-4805 -4808 -8550 -2 3 0
-4811 -4814 -8551 -2 1 0
-4811 -4815 -8551 -2 -3 1 0
-4812 -4814 -8551 -3 -2 1 0
-4812 -4815 -8551 -3 1 0
-4810 -4813 -8552 -1 2 0
-4810 -4815 -8552 -1 -3 2 0
-4812 -4813 -8552 -3 -1 2 0
-4812 -4815 -8552 -3 2 0
-4810 -4813 -8553 -1 3 0
-4810 -4814 -8553 -1 -2 3 0
-4811 -4813 -8553 -2 -1 3 0
-4811 -4814 -8553 -2 3 0
-4817 -4820 -8554 -2 1 0
-4817 -4821 -8554 -2 -3 1 0
-4818 -4820 -8554 -3 -2 1 0
-4818 -4821 -8554 -3 1 0
-4816 -4819 -8555 -1 2 0
-4816 -4821 -8555 -1 -3 2 0
-4818 -4819 -8555 -3 -1 2 0
-4818 -4821 -8555 -3 2 0
-4816 -4819 -8556 -1 3 0
-4816 -4820 -8556 -1 -2 3 0
-4817 -4819 -8556 -2 -1 3 0
-4817 -4820 -8556 -2 3 0
-4823 -4826 -8557 -2 1 0
-4823 -4827 -8557 -2 -3 1 0
-4824 -4826 -8557 -3 -2 1 0
-4824 -4827 -8557 -3 1 0
-4822 -4825 -8558 -1 2 0
-4822 -4827 -8558 -1 -3 2 0
-4824 -4825 -8558 -3 -1 2 0
-4824 -4827 -8558 -3 2 0
-4822 -4825 -8559 -1 3 0
-4822 -4826 -8559 -1 -2 3 0
-4823 -4825 -8559 -2 -1 3 0
-4823 -4826 -8559 -2 3 0
-4829 -4832 -8560 -2 1 0
-4829 -4833 -8560 -2 -3 1 0
-4830 -4832 -8560 -3 -2 1 0
-4830 -4833 -8560 -3 1 0
-4828 -4831 -8561 -1 2 0
-4828 -4833 -8561 -1 -3 2 0
-4830 -4831 -8561 -3 -1 2 0
-4830 -4833 -8561 -3 2 0
-4828 -4831 -8562 -1 3 0
-4828 -4832 -8562 -1 -2 3 0
-4829 -4831 -8562 -2 -1 3 0
-4829 -4832 -8562 -2 3 0
-4835 -4838 -8563 -2 1 0
-4835 -4839 -8563 -2 -3 1 0
-4836 -4838 -8563 -3 -2 1 0
-4836 -4839 -8563 -3 1 0
-4834 -4837 -8564 -1 2 0
-4834 -4839 -8564 -1 -3 2 0
-4836 -4837 -8564 -3 -1 2 0
-4836 -4839 -8564 -3 2 0
-4834 -4837 -8565 -1 3 0
-4834 -4838 -8565 -1 -2 3 0
-4835 -4837 -8565 -2 -1 3 0
-4835 -4838 -8565 -2 3 0
-4841 -4844 -8566 -2 1 0
-4841 -4845 -8566 -2 -3 1 0
-4842 -4844 -8566 -3 -2 1 0
-4842 -4845 -8566 -3 1 0
-4840 -4843 -8567 -1 2 0
-4840 -4845 -8567 -1 -3 2 0
-4842 -4843 -8567 -3 -1 2 0
-4842 -4845 -8567 -3 2 0
-4840 -4843 -8568 -1 3 0
-4840 -4844 -8568 -1 -2 3 0
-4841 -4843 -8568 -2 -1 3 0
-4841 -4844 -8568 -2 3 0
-4847 -4850 -8569 -2 1 0
-4847 -4851 -8569 -2 -3 1 0
-4848 -4850 -8569 -3 -2 1 0
-4848 -4851 -8569 -3 1 0
-4846 -4849 -8570 -1 2 0
-4846 -4851 -8570 -1 -3 2 0
-4848 -4849 -8570 -3 -1 2 0
-4848 -4851 -8570 -3 2 0
-4846 -4849 -8571 -1 3 0
-4846 -4850 -8571 -1 -2 3 0
-4847 -4849 -8571 -2 -1 3 0
-4847 -4850 -8571 -2 3 0
-4853 -4856 -8572 -2 1 0
-4853 -4857 -8572 -2 -3 1 0
-4854 -4856 -8572 -3 -2 1 0
-4854 -4857 -8572 -3 1 0
-4852 -4855 -8573 -1 2 0
-4852 -4857 -8573 -1 -3 2 0
-4854 -4855 -8573 -3 -1 2 0
-4854 -4857 -8573 -3 2 0
-4852 -4855 -8574 -1 3 0
-4852 -4856 -8574 -1 -2 3 0
-4853 -4855 -8574 -2 -1 3 0
-4853 -4856 -8574 -2 3 0
-4859 -4862 -8575 -2 1 0
-4859 -4863 -8575 -2 -3 1 0
-4860 -4862 -8575 -3 -2 1 0
-4860 -4863 -8575 -3 1 0
-4858 -4861 -8576 -1 2 0
-4858 -4863 -8576 -1 -3 2 0
-4860 -4861 -8576 -3 -1 2 0
-4860 -4863 -8576 -3 2 0
-4858 -4861 -8577 -1 3 0
-4858 -4862 -8577 -1 -2 3 0
-4859 -4861 -8577 -2 -1 3 0
-4859 -4862 -8577 -2 3 0
-4865 -4868 -8578 -2 1 0
-4865 -4869 -8578 -2 -3 1 0
-4866 -4868 -8578 -3 -2 1 0
-4866 -4869 -8578 -3 1 0
-4864 -4867 -8579 -1 2 0
-4864 -4869 -8579 -1 -3 2 0
-4866 -4867 -8579 -3 -1 2 0
-4866 -4869 -8579 -3 2 0
-4864 -4867 -8580 -1 3 0
-4864 -4868 -8580 -1 -2 3 0
-4865 -4867 -8580 -2 -1 3 0
-4865 -4868 -8580 -2 3 0
-4871 -4874 -8581 -2 1 0
-4871 -4875 -8581 -2 -3 1 0
-4872 -4874 -8581 -3 -2 1 0
-4872 -4875 -8581 -3 1 0
-4870 -4873 -8582 -1 2 0
-4870 -4875 -8582 -1 -3 2 0
-4872 -4873 -8582 -3 -1 2 0
-4872 -4875 -8582 -3 2 0
-4870 -4873 -8583 -1 3 0
-4870 -4874 -8583 -1 -2 3 0
-4871 -4873 -8583 -2 -1 3 0
-4871 -4874 -8583 -2 3 0
-4877 -4880 -8584 -2 1 0
-4877 -4881 -8584 -2 -3 1 0
-4878 -4880 -8584 -3 -2 1 0
-4878 -4881 -8584 -3 1 0
-4876 -4879 -8585 -1 2 0
-4876 -4881 -8585 -1 -3 2 0
-4878 -4879 -8585 -3 -1 2 0
-4878 -4881 -8585 -3 2 0
-4876 -4879 -8586 -1 3 0
-4876 -4880 -8586 -1 -2 3 0
-4877 -4879 -8586 -2 -1 3 0
-4877 -4880 -8586 -2 3 0
-4883 -4886 -8587 -2 1 0
-4883 -4887 -8587 -2 -3 1 0
-4884 -4886 -8587 -3 -2 1 0
-4884 -4887 -8587 -3 1 0
-4882 -4885 -8588 -1 2 0
-4882 -4887 -8588 -1 -3 2 0
-4884 -4885 -8588 -3 -1 2 0
-4884 -4887 -8588 -3 2 0
-4882 -4885 -8589 -1 3 0
-4882 -4886 -8589 -1 -2 3 0
-4883 -4885 -8589 -2 -1 3 0
-4883 -4886 -8589 -2 3 0
-4889 -4892 -8590 -2 1 0
-4889 -4893 -8590 -2 -3 1 0
-4890 -4892 -8590 -3 -2 1 0
-4890 -4893 -8590 -3 1 0
-4888 -4891 -8591 -1 2 0
-4888 -4893 -8591 -1 -3 2 0
-4890 -4891 -8591 -3 -1 2 0
-4890 -4893 -8591 -3 2 0
-4888 -4891 -8592 -1 3 0
-4888 -4892 -8592 -1 -2 3 0
-4889 -4891 -8592 -2 -1 3 0
-4889 -4892 -8592 -2 3 0
-4895 -4898 -8593 -2 1 0
-4895 -4899 -8593 -2 -3 1 0
-4896 -4898 -8593 -3 -2 1 0
-4896 -4899 -8593 -3 1 0
-4894 -4897 -8594 -1 2 0
-4894 -4899 -8594 -1 -3 2 0
-4896 -4897 -8594 -3 -1 2 0
-4896 -4899 -8594 -3 2 0
-4894 -4897 -8595 -1 3 0
-4894 -4898 -8595 -1 -2 3 0
-4895 -4897 -8595 -2 -1 3 0
-4895 -4898 -8595 -2 3 0
-4901 -4904 -8596 -2 1 0
-4901 -4905 -8596 -2 -3 1 0
-4902 -4904 -8596 -3 -2 1 0
-4902 -4905 -8596 -3 1 0
-4900 -4903 -8597 -1 2 0
-4900 -4905 -8597 -1 -3 2 0
-4902 -4903 -8597 -3 -1 2 0
-4902 -4905 -8597 -3 2 0
-4900 -4903 -8598 -1 3 0
-4900 -4904 -8598 -1 -2 3 0
-4901 -4903 -8598 -2 -1 3 0
-4901 -4904 -8598 -2 3 0
-4907 -4910 -8599 -2 1 0
-4907 -4911 -8599 -2 -3 1 0
-4908 -4910 -8599 -3 -2 1 0
-4908 -4911 -8599 -3 1 0
-4906 -4909 -8600 -1 2 0
-4906 -4911 -8600 -1 -3 2 0
-4908 -4909 -8600 -3 -1 2 0
-4908 -4911 -8600 -3 2 0
-4906 -4909 -8601 -1 3 0
-4906 -4910 -8601 -1 -2 3 0
-4907 -4909 -8601 -2 -1 3 0
-4907 -4910 -8601 -2 3 0
-4913 -4916 -8602 -2 1 0
-4913 -4917 -8602 -2 -3 1 0
-4914 -4916 -8602 -3 -2 1 0
-4914 -4917 -8602 -3 1 0
-4912 -4915 -8603 -1 2 0
-4912 -4917 -8603 -1 -3 2 0
-4914 -4915 -8603 -3 -1 2 0
-4914 -4917 -8603 -3 2 0
-4912 -4915 -8604 -1 3 0
-4912 -4916 -8604 -1 -2 3 0
-4913 -4915 -8604 -2 -1 3 0
-4913 -4916 -8604 -2 3 0
-4919 -4922 -8605 -2 1 0
-4919 -4923 -8605 -2 -3 1 0
-4920 -4922 -8605 -3 -2 1 0
-4920 -4923 -8605 -3 1 0
-4918 -4921 -8606 -1 2 0
-4918 -4923 -8606 -1 -3 2 0
-4920 -4921 -8606 -3 -1 2 0
-4920 -4923 -8606 -3 2 0
-4918 -4921 -8607 -1 3 0
-4918 -4922 -8607 -1 -2 3 0
-4919 -4921 -8607 -2 -1 3 0
-4919 -4922 -8607 -2 3 0
-4925 -4928 -8608 -2 1 0
-4925 -4929 -8608 -2 -3 1 0
-4926 -4928 -8608 -3 -2 1 0
-4926 -4929 -8608 -3 1 0
-4924 -4927 -8609 -1 2 0
-4924 -4929 -8609 -1 -3 2 0
-4926 -4927 -8609 -3 -1 2 0
-4926 -4929 -8609 -3 2 0
-4924 -4927 -8610 -1 3 0
-4924 -4928 -8610 -1 -2 3 0
-4925 -4927 -8610 -2 -1 3 0
-4925 -4928 -8610 -2 3 0
-4931 -4934 -8611 -2 1 0
-4931 -4935 -8611 -2 -3 1 0
-4932 -4934 -8611 -3 -2 1 0
-4932 -4935 -8611 -3 1 0
-4930 -4933 -8612 -1 2 0
-4930 -4935 -8612 -1 -3 2 0
-4932 -4933 -8612 -3 -1 2 0
-4932 -4935 -8612 -3 2 0
-4930 -4933 -8613 -1 3 0
-4930 -4934 -8613 -1 -2 3 0
-4931 -4933 -8613 -2 -1 3 0
-4931 -4934 -8613 -2 3 0
-4937 -4940 -8614 -2 1 0
-4937 -4941 -8614 -2 -3 1 0
-4938 -4940 -8614 -3 -2 1 0
-4938 -4941 -8614 -3 1 0
-4936 -4939 -8615 -1 2 0
-4936 -4941 -8615 -1 -3 2 0
-4938 -4939 -8615 -3 -1 2 0
-4938 -4941 -8615 -3 2 0
-4936 -4939 -8616 -1 3 0
-4936 -4940 -8616 -1 -2 3 0
-4937 -4939 -8616 -2 -1 3 0
-4937 -4940 -8616 -2 3 0
-4943 -4946 -8617 -2 1 0
-4943 -4947 -8617 -2 -3 1 0
-4944 -4946 -8617 -3 -2 1 0
-4944 -4947 -8617 -3 1 0
-4942 -4945 -8618 -1 2 0
-4942 -4947 -8618 -1 -3 2 0
-4944 -4945 -8618 -3 -1 2 0
-4944 -4947 -8618 -3 2 0
-4942 -4945 -8619 -1 3 0
-4942 -4946 -8619 -1 -2 3 0
-4943 -4945 -8619 -2 -1 3 0
-4943 -4946 -8619 -2 3 0
-4949 -4952 -8620 -2 1 0
-4949 -4953 -8620 -2 -3 1 0
-4950 -4952 -8620 -3 -2 1 0
-4950 -4953 -8620 -3 1 0
-4948 -4951 -8621 -1 2 0
-4948 -4953 -8621 -1 -3 2 0
-4950 -4951 -8621 -3 -1 2 0
-4950 -4953 -8621 -3 2 0
-4948 -4951 -8622 -1 3 0
-4948 -4952 -8622 -1 -2 3 0
-4949 -4951 -8622 -2 -1 3 0
-4949 -4952 -8622 -2 3 0
-4955 -4958 -8623 -2 1 0
-4955 -4959 -8623 -2 -3 1 0
-4956 -4958 -8623 -3 -2 1 0
-4956 -4959 -8623 -3 1 0
-4954 -4957 -8624 -1 2 0
-4954 -4959 -8624 -1 -3 2 0
-4956 -4957 -8624 -3 -1 2 0
-4956 -4959 -8624 -3 2 0
-4954 -4957 -8625 -1 3 0
-4954 -4958 -8625 -1 -2 3 0
-4955 -4957 -8625 -2 -1 3 0
-4955 -4958 -8625 -2 3 0
-4961 -4964 -8626 -2 1 0
-4961 -4965 -8626 -2 -3 1 0
-4962 -4964 -8626 -3 -2 1 0
-4962 -4965 -8626 -3 1 0
-4960 -4963 -8627 -1 2 0
-4960 -4965 -8627 -1 -3 2 0
-4962 -4963 -8627 -3 -1 2 0
-4962 -4965 -8627 -3 2 0
-4960 -4963 -8628 -1 3 0
-4960 -4964 -8628 -1 -2 3 0
-4961 -4963 -8628 -2 -1 3 0
-4961 -4964 -8628 -2 3 0
-4967 -4970 -8629 -2 1 0
-4967 -4971 -8629 -2 -3 1 0
-4968 -4970 -8629 -3 -2 1 0
-4968 -4971 -8629 -3 1 0
-4966 -4969 -8630 -1 2 0
-4966 -4971 -8630 -1 -3 2 0
-4968 -4969 -8630 -3 -1 2 0
-4968 -4971 -8630 -3 2 0
-4966 -4969 -8631 -1 3 0
-4966 -4970 -8631 -1 -2 3 0
-4967 -4969 -8631 -2 -1 3 0
-4967 -4970 -8631 -2 3 0
-4973 -4976 -8632 -2 1 0
-4973 -4977 -8632 -2 -3 1 0
-4974 -4976 -8632 -3 -2 1 0
-4974 -4977 -8632 -3 1 0
-4972 -4975 -8633 -1 2 0
-4972 -4977 -8633 -1 -3 2 0
-4974 -4975 -8633 -3 -1 2 0
-4974 -4977 -8633 -3 2 0
-4972 -4975 -8634 -1 3 0
-4972 -4976 -8634 -1 -2 3 0
-4973 -4975 -8634 -2 -1 3 0
-4973 -4976 -8634 -2 3 0
-4979 -4982 -8635 -2 1 0
-4979 -4983 -8635 -2 -3 1 0
-4980 -4982 -8635 -3 -2 1 0
-4980 -4983 -8635 -3 1 0
-4978 -4981 -8636 -1 2 0
-4978 -4983 -8636 -1 -3 2 0
-4980 -4981 -8636 -3 -1 2 0
-4980 -4983 -8636 -3 2 0
-4978 -4981 -8637 -1 3 0
-4978 -4982 -8637 -1 -2 3 0
-4979 -4981 -8637 -2 -1 3 0
-4979 -4982 -8637 -2 3 0
-4985 -4988 -8638 -2 1 0
-4985 -4989 -8638 -2 -3 1 0
-4986 -4988 -8638 -3 -2 1 0
-4986 -4989 -8638 -3 1 0
-4984 -4987 -8639 -1 2 0
-4984 -4989 -8639 -1 -3 2 0
-4986 -4987 -8639 -3 -1 2 0
-4986 -4989 -8639 -3 2 0
-4984 -4987 -8640 -1 3 0
-4984 -4988 -8640 -1 -2 3 0
-4985 -4987 -8640 -2 -1 3 0
-4985 -4988 -8640 -2 3 0
-4991 -4994 -8641 -2 1 0
-4991 -4995 -8641 -2 -3 1 0
-4992 -4994 -8641 -3 -2 1 0
-4992 -4995 -8641 -3 1 0
-4990 -4993 -8642 -1 2 0
-4990 -4995 -8642 -1 -3 2 0
-4992 -4993 -8642 -3 -1 2 0
-4992 -4995 -8642 -3 2 0
-4990 -4993 -8643 -1 3 0
-4990 -4994 -8643 -1 -2 3 0
-4991 -4993 -8643 -2 -1 3 0
-4991 -4994 -8643 -2 3 0
-4997 -5000 -8644 -2 1 0
-4997 -5001 -8644 -2 -3 1 0
-4998 -5000 -8644 -3 -2 1 0
-4998 -5001 -8644 -3 1 0
-4996 -4999 -8645 -1 2 0
-4996 -5001 -8645 -1 -3 2 0
-4998 -4999 -8645 -3 -1 2 0
-4998 -5001 -8645 -3 2 0
-4996 -4999 -8646 -1 3 0
-4996 -5000 -8646 -1 -2 3 0
-4997 -4999 -8646 -2 -1 3 0
-4997 -5000 -8646 -2 3 0
-5003 -5006 -8647 -2 1 0
-5003 -5007 -8647 -2 -3 1 0
-5004 -5006 -8647 -3 -2 1 0
-5004 -5007 -8647 -3 1 0
-5002 -5005 -8648 -1 2 0
-5002 -5007 -8648 -1 -3 2 0
-5004 -5005 -8648 -3 -1 2 0
-5004 -5007 -8648 -3 2 0
-5002 -5005 -8649 -1 3 0
-5002 -5006 -8649 -1 -2 3 0
-5003 -5005 -8649 -2 -1 3 0
-5003 -5006 -8649 -2 3 0
-5009 -5012 -8650 -2 1 0
-5009 -5013 -8650 -2 -3 1 0
-5010 -5012 -8650 -3 -2 1 0
-5010 -5013 -8650 -3 1 0
-5008 -5011 -8651 -1 2 0
-5008 -5013 -8651 -1 -3 2 0
-5010 -5011 -8651 -3 -1 2 0
-5010 -5013 -8651 -3 2 0
-5008 -5011 -8652 -1 3 0
-5008 -5012 -8652 -1 -2 3 0
-5009 -5011 -8652 -2 -1 3 0
-5009 -5012 -8652 -2 3 0
-5015 -5018 -8653 -2 1 0
-5015 -5019 -8653 -2 -3 1 0
-5016 -5018 -8653 -3 -2 1 0
-5016 -5019 -8653 -3 1 0
-5014 -5017 -8654 -1 2 0
-5014 -5019 -8654 -1 -3 2 0
-5016 -5017 -8654 -3 -1 2 0
-5016 -5019 -8654 -3 2 0
-5014 -5017 -8655 -1 3 0
-5014 -5018 -8655 -1 -2 3 0
-5015 -5017 -8655 -2 -1 3 0
-5015 -5018 -8655 -2 3 0
-5021 -5024 -8656 -2 1 0
-5021 -5025 -8656 -2 -3 1 0
-5022 -5024 -8656 -3 -2 1 0
-5022 -5025 -8656 -3 1 0
-5020 -5023 -8657 -1 2 0
-5020 -5025 -8657 -1 -3 2 0
-5022 -5023 -8657 -3 -1 2 0
-5022 -5025 -8657 -3 2 0
-5020 -5023 -8658 -1 3 0
-5020 -5024 -8658 -1 -2 3 0
-5021 -5023 -8658 -2 -1 3 0
-5021 -5024 -8658 -2 3 0
-5027 -5030 -8659 -2 1 0
-5027 -5031 -8659 -2 -3 1 0
-5028 -5030 -8659 -3 -2 1 0
-5028 -5031 -8659 -3 1 0
-5026 -5029 -8660 -1 2 0
-5026 -5031 -8660 -1 -3 2 0
-5028 -5029 -8660 -3 -1 2 0
-5028 -5031 -8660 -3 2 0
-5026 -5029 -8661 -1 3 0
-5026 -5030 -8661 -1 -2 3 0
-5027 -5029 -8661 -2 -1 3 0
-5027 -5030 -8661 -2 3 0
-5033 -5036 -8662 -2 1 0
-5033 -5037 -8662 -2 -3 1 0
-5034 -5036 -8662 -3 -2 1 0
-5034 -5037 -8662 -3 1 0
-5032 -5035 -8663 -1 2 0
-5032 -5037 -8663 -1 -3 2 0
-5034 -5035 -8663 -3 -1 2 0
-5034 -5037 -8663 -3 2 0
-5032 -5035 -8664 -1 3 0
-5032 -5036 -8664 -1 -2 3 0
-5033 -5035 -8664 -2 -1 3 0
-5033 -5036 -8664 -2 3 0
-5039 -5042 -8665 -2 1 0
-5039 -5043 -8665 -2 -3 1 0
-5040 -5042 -8665 -3 -2 1 0
-5040 -5043 -8665 -3 1 0
-5038 -5041 -8666 -1 2 0
-5038 -5043 -8666 -1 -3 2 0
-5040 -5041 -8666 -3 -1 2 0
-5040 -5043 -8666 -3 2 0
-5038 -5041 -8667 -1 3 0
-5038 -5042 -8667 -1 -2 3 0
-5039 -5041 -8667 -2 -1 3 0
-5039 -5042 -8667 -2 3 0
-5045 -5048 -8668 -2 1 0
-5045 -5049 -8668 -2 -3 1 0
-5046 -5048 -8668 -3 -2 1 0
-5046 -5049 -8668 -3 1 0
-5044 -5047 -8669 -1 2 0
-5044 -5049 -8669 -1 -3 2 0
-5046 -5047 -8669 -3 -1 2 0
-5046 -5049 -8669 -3 2 0
-5044 -5047 -8670 -1 3 0
-5044 -5048 -8670 -1 -2 3 0
-5045 -5047 -8670 -2 -1 3 0
-5045 -5048 -8670 -2 3 0
-5051 -5054 -8671 -2 1 0
-5051 -5055 -8671 -2 -3 1 0
-5052 -5054 -8671 -3 -2 1 0
-5052 -5055 -8671 -3 1 0
-5050 -5053 -8672 -1 2 0
-5050 -5055 -8672 -1 -3 2 0
-5052 -5053 -8672 -3 -1 2 0
-5052 -5055 -8672 -3 2 0
-5050 -5053 -8673 -1 3 0
-5050 -5054 -8673 -1 -2 3 0
-5051 -5053 -8673 -2 -1 3 0
-5051 -5054 -8673 -2 3 0
-5057 -5060 -8674 -2 1 0
-5057 -5061 -8674 -2 -3 1 0
-5058 -5060 -8674 -3 -2 1 0
-5058 -5061 -8674 -3 1 0
-5056 -5059 -8675 -1 2 0
-5056 -5061 -8675 -1 -3 2 0
-5058 -5059 -8675 -3 -1 2 0
-5058 -5061 -8675 -3 2 0
-5056 -5059 -8676 -1 3 0
-5056 -5060 -8676 -1 -2 3 0
-5057 -5059 -8676 -2 -1 3 0
-5057 -5060 -8676 -2 3 0
-5063 -5066 -8677 -2 1 0
-5063 -5067 -8677 -2 -3 1 0
-5064 -5066 -8677 -3 -2 1 0
-5064 -5067 -8677 -3 1 0
-5062 -5065 -8678 -1 2 0
-5062 -5067 -8678 -1 -3 2 0
-5064 -5065 -8678 -3 -1 2 0
-5064 -5067 -8678 -3 2 0
-5062 -5065 -8679 -1 3 0
-5062 -5066 -8679 -1 -2 3 0
-5063 -5065 -8679 -2 -1 3 0
-5063 -5066 -8679 -2 3 0
-5069 -5072 -8680 -2 1 0
-5069 -5073 -8680 -2 -3 1 0
-5070 -5072 -8680 -3 -2 1 0
-5070 -5073 -8680 -3 1 0
-5068 -5071 -8681 -1 2 0
-5068 -5073 -8681 -1 -3 2 0
-5070 -5071 -8681 -3 -1 2 0
-5070 -5073 -8681 -3 2 0
-5068 -5071 -8682 -1 3 0
-5068 -5072 -8682 -1 -2 3 0
-5069 -5071 -8682 -2 -1 3 0
-5069 -5072 -8682 -2 3 0
-5075 -5078 -8683 -2 1 0
-5075 -5079 -8683 -2 -3 1 0
-5076 -5078 -8683 -3 -2 1 0
-5076 -5079 -8683 -3 1 0
-5074 -5077 -8684 -1 2 0
-5074 -5079 -8684 -1 -3 2 0
-5076 -5077 -8684 -3 -1 2 0
-5076 -5079 -8684 -3 2 0
-5074 -5077 -8685 -1 3 0
-5074 -5078 -8685 -1 -2 3 0
-5075 -5077 -8685 -2 -1 3 0
-5075 -5078 -8685 -2 3 0
-5081 -5084 -8686 -2 1 0
-5081 -5085 -8686 -2 -3 1 0
-5082 -5084 -8686 -3 -2 1 0
-5082 -5085 -8686 -3 1 0
-5080 -5083 -8687 -1 2 0
-5080 -5085 -8687 -1 -3 2 0
-5082 -5083 -8687 -3 -1 2 0
-5082 -5085 -8687 -3 2 0
-5080 -5083 -8688 -1 3 0
-5080 -5084 -8688 -1 -2 3 0
-5081 -5083 -8688 -2 -1 3 0
-5081 -5084 -8688 -2 3 0
-5087 -5090 -8689 -2 1 0
-5087 -5091 -8689 -2 -3 1 0
-5088 -5090 -8689 -3 -2 1 0
-5088 -5091 -8689 -3 1 0
-5086 -5089 -8690 -1 2 0
-5086 -5091 -8690 -1 -3 2 0
-5088 -5089 -8690 -3 -1 2 0
-5088 -5091 -8690 -3 2 0
-5086 -5089 -8691 -1 3 0
-5086 -5090 -8691 -1 -2 3 0
-5087 -5089 -8691 -2 -1 3 0
-5087 -5090 -8691 -2 3 0
-5093 -5096 -8692 -2 1 0
-5093 -5097 -8692 -2 -3 1 0
-5094 -5096 -8692 -3 -2 1 0
-5094 -5097 -8692 -3 1 0
-5092 -5095 -8693 -1 2 0
-5092 -5097 -8693 -1 -3 2 0
-5094 -5095 -8693 -3 -1 2 0
-5094 -5097 -8693 -3 2 0
-5092 -5095 -8694 -1 3 0
-5092 -5096 -8694 -1 -2 3 0
-5093 -5095 -8694 -2 -1 3 0
-5093 -5096 -8694 -2 3 0
-5099 -5102 -8695 -2 1 0
-5099 -5103 -8695 -2 -3 1 0
-5100 -5102 -8695 -3 -2 1 0
-5100 -5103 -8695 -3 1 0
-5098 -5101 -8696 -1 2 0
-5098 -5103 -8696 -1 -3 2 0
-5100 -5101 -8696 -3 -1 2 0
-5100 -5103 -8696 -3 2 0
-5098 -5101 -8697 -1 3 0
-5098 -5102 -8697 -1 -2 3 0
-5099 -5101 -8697 -2 -1 3 0
-5099 -5102 -8697 -2 3 0
-5105 -5108 -8698 -2 1 0
-5105 -5109 -8698 -2 -3 1 0
-5106 -5108 -8698 -3 -2 1 0
-5106 -5109 -8698 -3 1 0
-5104 -5107 -8699 -1 2 0
-5104 -5109 -8699 -1 -3 2 0
-5106 -5107 -8699 -3 -1 2 0
-5106 -5109 -8699 -3 2 0
-5104 -5107 -8700 -1 3 0
-5104 -5108 -8700 -1 -2 3 0
-5105 -5107 -8700 -2 -1 3 0
-5105 -5108 -8700 -2 3 0
-5111 -5114 -8701 -2 1 0
-5111 -5115 -8701 -2 -3 1 0
-5112 -5114 -8701 -3 -2 1 0
-5112 -5115 -8701 -3 1 0
-5110 -5113 -8702 -1 2 0
-5110 -5115 -8702 -1 -3 2 0
-5112 -5113 -8702 -3 -1 2 0
-5112 -5115 -8702 -3 2 0
-5110 -5113 -8703 -1 3 0
-5110 -5114 -8703 -1 -2 3 0
-5111 -5113 -8703 -2 -1 3 0
-5111 -5114 -8703 -2 3 0
-5117 -5120 -8704 -2 1 0
-5117 -5121 -8704 -2 -3 1 0
-5118 -5120 -8704 -3 -2 1 0
-5118 -5121 -8704 -3 1 0
-5116 -5119 -8705 -1 2 0
-5116 -5121 -8705 -1 -3 2 0
-5118 -5119 -8705 -3 -1 2 0
-5118 -5121 -8705 -3 2 0
-5116 -5119 -8706 -1 3 0
-5116 -5120 -8706 -1 -2 3 0
-5117 -5119 -8706 -2 -1 3 0
-5117 -5120 -8706 -2 3 0
-5123 -5126 -8707 -2 1 0
-5123 -5127 -8707 -2 -3 1 0
-5124 -5126 -8707 -3 -2 1 0
-5124 -5127 -8707 -3 1 0
-5122 -5125 -8708 -1 2 0
-5122 -5127 -8708 -1 -3 2 0
-5124 -5125 -8708 -3 -1 2 0
-5124 -5127 -8708 -3 2 0
-5122 -5125 -8709 -1 3 0
-5122 -5126 -8709 -1 -2 3 0
-5123 -5125 -8709 -2 -1 3 0
-5123 -5126 -8709 -2 3 0
-5129 -5132 -8710 -2 1 0
-5129 -5133 -8710 -2 -3 1 0
-5130 -5132 -8710 -3 -2 1 0
-5130 -5133 -8710 -3 1 0
-5128 -5131 -8711 -1 2 0
-5128 -5133 -8711 -1 -3 2 0
-5130 -5131 -8711 -3 -1 2 0
-5130 -5133 -8711 -3 2 0
-5128 -5131 -8712 -1 3 0
-5128 -5132 -8712 -1 -2 3 0
-5129 -5131 -8712 -2 -1 3 0
-5129 -5132 -8712 -2 3 0
-5135 -5138 -8713 -2 1 0
-5135 -5139 -8713 -2 -3 1 0
-5136 -5138 -8713 -3 -2 1 0
-5136 -5139 -8713 -3 1 0
-5134 -5137 -8714 -1 2 0
-5134 -5139 -8714 -1 -3 2 0
-5136 -5137 -8714 -3 -1 2 0
-5136 -5139 -8714 -3 2 0
-5134 -5137 -8715 -1 3 0
-5134 -5138 -8715 -1 -2 3 0
-5135 -5137 -8715 -2 -1 3 0
-5135 -5138 -8715 -2 3 0
-5141 -5144 -8716 -2 1 0
-5141 -5145 -8716 -2 -3 1 0
-5142 -5144 -8716 -3 -2 1 0
-5142 -5145 -8716 -3 1 0
-5140 -5143 -8717 -1 2 0
-5140 -5145 -8717 -1 -3 2 0
-5142 -5143 -8717 -3 -1 2 0
-5142 -5145 -8717 -3 2 0
-5140 -5143 -8718 -1 3 0
-5140 -5144 -8718 -1 -2 3 0
-5141 -5143 -8718 -2 -1 3 0
-5141 -5144 -8718 -2 3 0
-5147 -5150 -8719 -2 1 0
-5147 -5151 -8719 -2 -3 1 0
-5148 -5150 -8719 -3 -2 1 0
-5148 -5151 -8719 -3 1 0
-5146 -5149 -8720 -1 2 0
-5146 -5151 -8720 -1 -3 2 0
-5148 -5149 -8720 -3 -1 2 0
-5148 -5151 -8720 -3 2 0
-5146 -5149 -8721 -1 3 0
-5146 -5150 -8721 -1 -2 3 0
-5147 -5149 -8721 -2 -1 3 0
-5147 -5150 -8721 -2 3 0
-5153 -5156 -8722 -2 1 0
-5153 -5157 -8722 -2 -3 1 0
-5154 -5156 -8722 -3 -2 1 0
-5154 -5157 -8722 -3 1 0
-5152 -5155 -8723 -1 2 0
-5152 -5157 -8723 -1 -3 2 0
-5154 -5155 -8723 -3 -1 2 0
-5154 -5157 -8723 -3 2 0
-5152 -5155 -8724 -1 3 0
-5152 -5156 -8724 -1 -2 3 0
-5153 -5155 -8724 -2 -1 3 0
-5153 -5156 -8724 -2 3 0
-5159 -5162 -8725 -2 1 0
-5159 -5163 -8725 -2 -3 1 0
-5160 -5162 -8725 -3 -2 1 0
-5160 -5163 -8725 -3 1 0
-5158 -5161 -8726 -1 2 0
-5158 -5163 -8726 -1 -3 2 0
-5160 -5161 -8726 -3 -1 2 0
-5160 -5163 -8726 -3 2 0
-5158 -5161 -8727 -1 3 0
-5158 -5162 -8727 -1 -2 3 0
-5159 -5161 -8727 -2 -1 3 0
-5159 -5162 -8727 -2 3 0
-5165 -5168 -8728 -2 1 0
-5165 -5169 -8728 -2 -3 1 0
-5166 -5168 -8728 -3 -2 1 0
-5166 -5169 -8728 -3 1 0
-5164 -5167 -8729 -1 2 0
-5164 -5169 -8729 -1 -3 2 0
-5166 -5167 -8729 -3 -1 2 0
-5166 -5169 -8729 -3 2 0
-5164 -5167 -8730 -1 3 0
-5164 -5168 -8730 -1 -2 3 0
-5165 -5167 -8730 -2 -1 3 0
-5165 -5168 -8730 -2 3 0
-5171 -5174 -8731 -2 1 0
-5171 -5175 -8731 -2 -3 1 0
-5172 -5174 -8731 -3 -2 1 0
-5172 -5175 -8731 -3 1 0
-5170 -5173 -8732 -1 2 0
-5170 -5175 -8732 -1 -3 2 0
-5172 -5173 -8732 -3 -1 2 0
-5172 -5175 -8732 -3 2 0
-5170 -5173 -8733 -1 3 0
-5170 -5174 -8733 -1 -2 3 0
-5171 -5173 -8733 -2 -1 3 0
-5171 -5174 -8733 -2 3 0
-5177 -5180 -8734 -2 1 0
-5177 -5181 -8734 -2 -3 1 0
-5178 -5180 -8734 -3 -2 1 0
-5178 -5181 -8734 -3 1 0
-5176 -5179 -8735 -1 2 0
-5176 -5181 -8735 -1 -3 2 0
-5178 -5179 -8735 -3 -1 2 0
-5178 -5181 -8735 -3 2 0
-5176 -5179 -8736 -1 3 0
-5176 -5180 -8736 -1 -2 3 0
-5177 -5179 -8736 -2 -1 3 0
-5177 -5180 -8736 -2 3 0
-5183 -5186 -8737 -2 1 0
-5183 -5187 -8737 -2 -3 1 0
-5184 -5186 -8737 -3 -2 1 0
-5184 -5187 -8737 -3 1 0
-5182 -5185 -8738 -1 2 0
-5182 -5187 -8738 -1 -3 2 0
-5184 -5185 -8738 -3 -1 2 0
-5184 -5187 -8738 -3 2 0
-5182 -5185 -8739 -1 3 0
-5182 -5186 -8739 -1 -2 3 0
-5183 -5185 -8739 -2 -1 3 0
-5183 -5186 -8739 -2 3 0
-5189 -5192 -8740 -2 1 0
-5189 -5193 -8740 -2 -3 1 0
-5190 -5192 -8740 -3 -2 1 0
-5190 -5193 -8740 -3 1 0
-5188 -5191 -8741 -1 2 0
-5188 -5193 -8741 -1 -3 2 0
-5190 -5191 -8741 -3 -1 2 0
-5190 -5193 -8741 -3 2 0
-5188 -5191 -8742 -1 3 0
-5188 -5192 -8742 -1 -2 3 0
-5189 -5191 -8742 -2 -1 3 0
-5189 -5192 -8742 -2 3 0
-5195 -5198 -8743 -2 1 0
-5195 -5199 -8743 -2 -3 1 0
-5196 -5198 -8743 -3 -2 1 0
-5196 -5199 -8743 -3 1 0
-5194 -5197 -8744 -1 2 0
-5194 -5199 -8744 -1 -3 2 0
-5196 -5197 -8744 -3 -1 2 0
-5196 -5199 -8744 -3 2 0
-5194 -5197 -8745 -1 3 0
-5194 -5198 -8745 -1 -2 3 0
-5195 -5197 -8745 -2 -1 3 0
-5195 -5198 -8745 -2 3 0
-5201 -5204 -8746 -2 1 0
-5201 -5205 -8746 -2 -3 1 0
-5202 -5204 -8746 -3 -2 1 0
-5202 -5205 -8746 -3 1 0
-5200 -5203 -8747 -1 2 0
-5200 -5205 -8747 -1 -3 2 0
-5202 -5203 -8747 -3 -1 2 0
-5202 -5205 -8747 -3 2 0
-5200 -5203 -8748 -1 3 0
-5200 -5204 -8748 -1 -2 3 0
-5201 -5203 -8748 -2 -1 3 0
-5201 -5204 -8748 -2 3 0
-5207 -5210 -8749 -2 1 0
-5207 -5211 -8749 -2 -3 1 0
-5208 -5210 -8749 -3 -2 1 0
-5208 -5211 -8749 -3 1 0
-5206 -5209 -8750 -1 2 0
-5206 -5211 -8750 -1 -3 2 0
-5208 -5209 -8750 -3 -1 2 0
-5208 -5211 -8750 -3 2 0
-5206 -5209 -8751 -1 3 0
-5206 -5210 -8751 -1 -2 3 0
-5207 -5209 -8751 -2 -1 3 0
-5207 -5210 -8751 -2 3 0
-5213 -5216 -8752 -2 1 0
-5213 -5217 -8752 -2 -3 1 0
-5214 -5216 -8752 -3 -2 1 0
-5214 -5217 -8752 -3 1 0
-5212 -5215 -8753 -1 2 0
-5212 -5217 -8753 -1 -3 2 0
-5214 -5215 -8753 -3 -1 2 0
-5214 -5217 -8753 -3 2 0
-5212 -5215 -8754 -1 3 0
-5212 -5216 -8754 -1 -2 3 0
-5213 -5215 -8754 -2 -1 3 0
-5213 -5216 -8754 -2 3 0
-5219 -5222 -8755 -2 1 0
-5219 -5223 -8755 -2 -3 1 0
-5220 -5222 -8755 -3 -2 1 0
-5220 -5223 -8755 -3 1 0
-5218 -5221 -8756 -1 2 0
-5218 -5223 -8756 -1 -3 2 0
-5220 -5221 -8756 -3 -1 2 0
-5220 -5223 -8756 -3 2 0
-5218 -5221 -8757 -1 3 0
-5218 -5222 -8757 -1 -2 3 0
-5219 -5221 -8757 -2 -1 3 0
-5219 -5222 -8757 -2 3 0
-5225 -5228 -8758 -2 1 0
-5225 -5229 -8758 -2 -3 1 0
-5226 -5228 -8758 -3 -2 1 0
-5226 -5229 -8758 -3 1 0
-5224 -5227 -8759 -1 2 0
-5224 -5229 -8759 -1 -3 2 0
-5226 -5227 -8759 -3 -1 2 0
-5226 -5229 -8759 -3 2 0
-5224 -5227 -8760 -1 3 0
-5224 -5228 -8760 -1 -2 3 0
-5225 -5227 -8760 -2 -1 3 0
-5225 -5228 -8760 -2 3 0
-5231 -5234 -8761 -2 1 0
-5231 -5235 -8761 -2 -3 1 0
-5232 -5234 -8761 -3 -2 1 0
-5232 -5235 -8761 -3 1 0
-5230 -5233 -8762 -1 2 0
-5230 -5235 -8762 -1 -3 2 0
-5232 -5233 -8762 -3 -1 2 0
-5232 -5235 -8762 -3 2 0
-5230 -5233 -8763 -1 3 0
-5230 -5234 -8763 -1 -2 3 0
-5231 -5233 -8763 -2 -1 3 0
-5231 -5234 -8763 -2 3 0
-5237 -5240 -8764 -2 1 0
-5237 -5241 -8764 -2 -3 1 0
-5238 -5240 -8764 -3 -2 1 0
-5238 -5241 -8764 -3 1 0
-5236 -5239 -8765 -1 2 0
-5236 -5241 -8765 -1 -3 2 0
-5238 -5239 -8765 -3 -1 2 0
-5238 -5241 -8765 -3 2 0
-5236 -5239 -8766 -1 3 0
-5236 -5240 -8766 -1 -2 3 0
-5237 -5239 -8766 -2 -1 3 0
-5237 -5240 -8766 -2 3 0
-5243 -5246 -8767 -2 1 0
-5243 -5247 -8767 -2 -3 1 0
-5244 -5246 -8767 -3 -2 1 0
-5244 -5247 -8767 -3 1 0
-5242 -5245 -8768 -1 2 0
-5242 -5247 -8768 -1 -3 2 0
-5244 -5245 -8768 -3 -1 2 0
-5244 -5247 -8768 -3 2 0
-5242 -5245 -8769 -1 3 0
-5242 -5246 -8769 -1 -2 3 0
-5243 -5245 -8769 -2 -1 3 0
-5243 -5246 -8769 -2 3 0
-5249 -5252 -8770 -2 1 0
-5249 -5253 -8770 -2 -3 1 0
-5250 -5252 -8770 -3 -2 1 0
-5250 -5253 -8770 -3 1 0
-5248 -5251 -8771 -1 2 0
-5248 -5253 -8771 -1 -3 2 0
-5250 -5251 -8771 -3 -1 2 0
-5250 -5253 -8771 -3 2 0
-5248 -5251 -8772 -1 3 0
-5248 -5252 -8772 -1 -2 3 0
-5249 -5251 -8772 -2 -1 3 0
-5249 -5252 -8772 -2 3 0
-5255 -5258 -8773 -2 1 0
-5255 -5259 -8773 -2 -3 1 0
-5256 -5258 -8773 -3 -2 1 0
-5256 -5259 -8773 -3 1 0
-5254 -5257 -8774 -1 2 0
-5254 -5259 -8774 -1 -3 2 0
-5256 -5257 -8774 -3 -1 2 0
-5256 -5259 -8774 -3 2 0
-5254 -5257 -8775 -1 3 0
-5254 -5258 -8775 -1 -2 3 0
-5255 -5257 -8775 -2 -1 3 0
-5255 -5258 -8775 -2 3 0
-5261 -5264 -8776 -2 1 0
-5261 -5265 -8776 -2 -3 1 0
-5262 -5264 -8776 -3 -2 1 0
-5262 -5265 -8776 -3 1 0
-5260 -5263 -8777 -1 2 0
-5260 -5265 -8777 -1 -3 2 0
-5262 -5263 -8777 -3 -1 2 0
-5262 -5265 -8777 -3 2 0
-5260 -5263 -8778 -1 3 0
-5260 -5264 -8778 -1 -2 3 0
-5261 -5263 -8778 -2 -1 3 0
-5261 -5264 -8778 -2 3 0
-5267 -5270 -8779 -2 1 0
-5267 -5271 -8779 -2 -3 1 0
-5268 -5270 -8779 -3 -2 1 0
-5268 -5271 -8779 -3 1 0
-5266 -5269 -8780 -1 2 0
-5266 -5271 -8780 -1 -3 2 0
-5268 -5269 -8780 -3 -1 2 0
-5268 -5271 -8780 -3 2 0
-5266 -5269 -8781 -1 3 0
-5266 -5270 -8781 -1 -2 3 0
-5267 -5269 -8781 -2 -1 3 0
-5267 -5270 -8781 -2 3 0
-5273 -5276 -8782 -2 1 0
-5273 -5277 -8782 -2 -3 1 0
-5274 -5276 -8782 -3 -2 1 0
-5274 -5277 -8782 -3 1 0
-5272 -5275 -8783 -1 2 0
-5272 -5277 -8783 -1 -3 2 0
-5274 -5275 -8783 -3 -1 2 0
-5274 -5277 -8783 -3 2 0
-5272 -5275 -8784 -1 3 0
-5272 -5276 -8784 -1 -2 3 0
-5273 -5275 -8784 -2 -1 3 0
-5273 -5276 -8784 -2 3 0
-5279 -5282 -8785 -2 1 0
-5279 -5283 -8785 -2 -3 1 0
-5280 -5282 -8785 -3 -2 1 0
-5280 -5283 -8785 -3 1 0
-5278 -5281 -8786 -1 2 0
-5278 -5283 -8786 -1 -3 2 0
-5280 -5281 -8786 -3 -1 2 0
-5280 -5283 -8786 -3 2 0
-5278 -5281 -8787 -1 3 0
-5278 -5282 -8787 -1 -2 3 0
-5279 -5281 -8787 -2 -1 3 0
-5279 -5282 -8787 -2 3 0
-5285 -5288 -8788 -2 1 0
-5285 -5289 -8788 -2 -3 1 0
-5286 -5288 -8788 -3 -2 1 0
-5286 -5289 -8788 -3 1 0
-5284 -5287 -8789 -1 2 0
-5284 -5289 -8789 -1 -3 2 0
-5286 -5287 -8789 -3 -1 2 0
-5286 -5289 -8789 -3 2 0
-5284 -5287 -8790 -1 3 0
-5284 -5288 -8790 -1 -2 3 0
-5285 -5287 -8790 -2 -1 3 0
-5285 -5288 -8790 -2 3 0
-5291 -5294 -8791 -2 1 0
-5291 -5295 -8791 -2 -3 1 0
-5292 -5294 -8791 -3 -2 1 0
-5292 -5295 -8791 -3 1 0
-5290 -5293 -8792 -1 2 0
-5290 -5295 -8792 -1 -3 2 0
-5292 -5293 -8792 -3 -1 2 0
-5292 -5295 -8792 -3 2 0
-5290 -5293 -8793 -1 3 0
-5290 -5294 -8793 -1 -2 3 0
-5291 -5293 -8793 -2 -1 3 0
-5291 -5294 -8793 -2 3 0
-5297 -5300 -8794 -2 1 0
-5297 -5301 -8794 -2 -3 1 0
-5298 -5300 -8794 -3 -2 1 0
-5298 -5301 -8794 -3 1 0
-5296 -5299 -8795 -1 2 0
-5296 -5301 -8795 -1 -3 2 0
-5298 -5299 -8795 -3 -1 2 0
-5298 -5301 -8795 -3 2 0
-5296 -5299 -8796 -1 3 0
-5296 -5300 -8796 -1 -2 3 0
-5297 -5299 -8796 -2 -1 3 0
-5297 -5300 -8796 -2 3 0
-5303 -5306 -8797 -2 1 0
-5303 -5307 -8797 -2 -3 1 0
-5304 -5306 -8797 -3 -2 1 0
-5304 -5307 -8797 -3 1 0
-5302 -5305 -8798 -1 2 0
-5302 -5307 -8798 -1 -3 2 0
-5304 -5305 -8798 -3 -1 2 0
-5304 -5307 -8798 -3 2 0
-5302 -5305 -8799 -1 3 0
-5302 -5306 -8799 -1 -2 3 0
-5303 -5305 -8799 -2 -1 3 0
-5303 -5306 -8799 -2 3 0
-5309 -5312 -8800 -2 1 0
-5309 -5313 -8800 -2 -3 1 0
-5310 -5312 -8800 -3 -2 1 0
-5310 -5313 -8800 -3 1 0
-5308 -5311 -8801 -1 2 0
-5308 -5313 -8801 -1 -3 2 0
-5310 -5311 -8801 -3 -1 2 0
-5310 -5313 -8801 -3 2 0
-5308 -5311 -8802 -1 3 0
-5308 -5312 -8802 -1 -2 3 0
-5309 -5311 -8802 -2 -1 3 0
-5309 -5312 -8802 -2 3 0
-5315 -5318 -8803 -2 1 0
-5315 -5319 -8803 -2 -3 1 0
-5316 -5318 -8803 -3 -2 1 0
-5316 -5319 -8803 -3 1 0
-5314 -5317 -8804 -1 2 0
-5314 -5319 -8804 -1 -3 2 0
-5316 -5317 -8804 -3 -1 2 0
-5316 -5319 -8804 -3 2 0
-5314 -5317 -8805 -1 3 0
-5314 -5318 -8805 -1 -2 3 0
-5315 -5317 -8805 -2 -1 3 0
-5315 -5318 -8805 -2 3 0
-5321 -5324 -8806 -2 1 0
-5321 -5325 -8806 -2 -3 1 0
-5322 -5324 -8806 -3 -2 1 0
-5322 -5325 -8806 -3 1 0
-5320 -5323 -8807 -1 2 0
-5320 -5325 -8807 -1 -3 2 0
-5322 -5323 -8807 -3 -1 2 0
-5322 -5325 -8807 -3 2 0
-5320 -5323 -8808 -1 3 0
-5320 -5324 -8808 -1 -2 3 0
-5321 -5323 -8808 -2 -1 3 0
-5321 -5324 -8808 -2 3 0
-5327 -5330 -8809 -2 1 0
-5327 -5331 -8809 -2 -3 1 0
-5328 -5330 -8809 -3 -2 1 0
-5328 -5331 -8809 -3 1 0
-5326 -5329 -8810 -1 2 0
-5326 -5331 -8810 -1 -3 2 0
-5328 -5329 -8810 -3 -1 2 0
-5328 -5331 -8810 -3 2 0
-5326 -5329 -8811 -1 3 0
-5326 -5330 -8811 -1 -2 3 0
-5327 -5329 -8811 -2 -1 3 0
-5327 -5330 -8811 -2 3 0
-5333 -5336 -8812 -2 1 0
-5333 -5337 -8812 -2 -3 1 0
-5334 -5336 -8812 -3 -2 1 0
-5334 -5337 -8812 -3 1 0
-5332 -5335 -8813 -1 2 0
-5332 -5337 -8813 -1 -3 2 0
-5334 -5335 -8813 -3 -1 2 0
-5334 -5337 -8813 -3 2 0
-5332 -5335 -8814 -1 3 0
-5332 -5336 -8814 -1 -2 3 0
-5333 -5335 -8814 -2 -1 3 0
-5333 -5336 -8814 -2 3 0
-5339 -5342 -8815 -2 1 0
-5339 -5343 -8815 -2 -3 1 0
-5340 -5342 -8815 -3 -2 1 0
-5340 -5343 -8815 -3 1 0
-5338 -5341 -8816 -1 2 0
-5338 -5343 -8816 -1 -3 2 0
-5340 -5341 -8816 -3 -1 2 0
-5340 -5343 -8816 -3 2 0
-5338 -5341 -8817 -1 3 0
-5338 -5342 -8817 -1 -2 3 0
-5339 -5341 -8817 -2 -1 3 0
-5339 -5342 -8817 -2 3 0
-5345 -5348 -8818 -2 1 0
-5345 -5349 -8818 -2 -3 1 0
-5346 -5348 -8818 -3 -2 1 0
-5346 -5349 -8818 -3 1 0
-5344 -5347 -8819 -1 2 0
-5344 -5349 -8819 -1 -3 2 0
-5346 -5347 -8819 -3 -1 2 0
-5346 -5349 -8819 -3 2 0
-5344 -5347 -8820 -1 3 0
-5344 -5348 -8820 -1 -2 3 0
-5345 -5347 -8820 -2 -1 3 0
-5345 -5348 -8820 -2 3 0
-5351 -5354 -8821 -2 1 0
-5351 -5355 -8821 -2 -3 1 0
-5352 -5354 -8821 -3 -2 1 0
-5352 -5355 -8821 -3 1 0
-5350 -5353 -8822 -1 2 0
-5350 -5355 -8822 -1 -3 2 0
-5352 -5353 -8822 -3 -1 2 0
-5352 -5355 -8822 -3 2 0
-5350 -5353 -8823 -1 3 0
-5350 -5354 -8823 -1 -2 3 0
-5351 -5353 -8823 -2 -1 3 0
-5351 -5354 -8823 -2 3 0
-5357 -5360 -8824 -2 1 0
-5357 -5361 -8824 -2 -3 1 0
-5358 -5360 -8824 -3 -2 1 0
-5358 -5361 -8824 -3 1 0
-5356 -5359 -8825 -1 2 0
-5356 -5361 -8825 -1 -3 2 0
-5358 -5359 -8825 -3 -1 2 0
-5358 -5361 -8825 -3 2 0
-5356 -5359 -8826 -1 3 0
-5356 -5360 -8826 -1 -2 3 0
-5357 -5359 -8826 -2 -1 3 0
-5357 -5360 -8826 -2 3 0
-5363 -5366 -8827 -2 1 0
-5363 -5367 -8827 -2 -3 1 0
-5364 -5366 -8827 -3 -2 1 0
-5364 -5367 -8827 -3 1 0
-5362 -5365 -8828 -1 2 0
-5362 -5367 -8828 -1 -3 2 0
-5364 -5365 -8828 -3 -1 2 0
-5364 -5367 -8828 -3 2 0
-5362 -5365 -8829 -1 3 0
-5362 -5366 -8829 -1 -2 3 0
-5363 -5365 -8829 -2 -1 3 0
-5363 -5366 -8829 -2 3 0
-5369 -5372 -8830 -2 1 0
-5369 -5373 -8830 -2 -3 1 0
-5370 -5372 -8830 -3 -2 1 0
-5370 -5373 -8830 -3 1 0
-5368 -5371 -8831 -1 2 0
-5368 -5373 -8831 -1 -3 2 0
-5370 -5371 -8831 -3 -1 2 0
-5370 -5373 -8831 -3 2 0
-5368 -5371 -8832 -1 3 0
-5368 -5372 -8832 -1 -2 3 0
-5369 -5371 -8832 -2 -1 3 0
-5369 -5372 -8832 -2 3 0
-5375 -5378 -8833 -2 1 0
-5375 -5379 -8833 -2 -3 1 0
-5376 -5378 -8833 -3 -2 1 0
-5376 -5379 -8833 -3 1 0
-5374 -5377 -8834 -1 2 0
-5374 -5379 -8834 -1 -3 2 0
-5376 -5377 -8834 -3 -1 2 0
-5376 -5379 -8834 -3 2 0
-5374 -5377 -8835 -1 3 0
-5374 -5378 -8835 -1 -2 3 0
-5375 -5377 -8835 -2 -1 3 0
-5375 -5378 -8835 -2 3 0
-5381 -5384 -8836 -2 1 0
-5381 -5385 -8836 -2 -3 1 0
-5382 -5384 -8836 -3 -2 1 0
-5382 -5385 -8836 -3 1 0
-5380 -5383 -8837 -1 2 0
-5380 -5385 -8837 -1 -3 2 0
-5382 -5383 -8837 -3 -1 2 0
-5382 -5385 -8837 -3 2 0
-5380 -5383 -8838 -1 3 0
-5380 -5384 -8838 -1 -2 3 0
-5381 -5383 -8838 -2 -1 3 0
-5381 -5384 -8838 -2 3 0
-5387 -5390 -8839 -2 1 0
-5387 -5391 -8839 -2 -3 1 0
-5388 -5390 -8839 -3 -2 1 0
-5388 -5391 -8839 -3 1 0
-5386 -5389 -8840 -1 2 0
-5386 -5391 -8840 -1 -3 2 0
-5388 -5389 -8840 -3 -1 2 0
-5388 -5391 -8840 -3 2 0
-5386 -5389 -8841 -1 3 0
-5386 -5390 -8841 -1 -2 3 0
-5387 -5389 -8841 -2 -1 3 0
-5387 -5390 -8841 -2 3 0
-5393 -5396 -8842 -2 1 0
-5393 -5397 -8842 -2 -3 1 0
-5394 -5396 -8842 -3 -2 1 0
-5394 -5397 -8842 -3 1 0
-5392 -5395 -8843 -1 2 0
-5392 -5397 -8843 -1 -3 2 0
-5394 -5395 -8843 -3 -1 2 0
-5394 -5397 -8843 -3 2 0
-5392 -5395 -8844 -1 3 0
-5392 -5396 -8844 -1 -2 3 0
-5393 -5395 -8844 -2 -1 3 0
-5393 -5396 -8844 -2 3 0
-5399 -5402 -8845 -2 1 0
-5399 -5403 -8845 -2 -3 1 0
-5400 -5402 -8845 -3 -2 1 0
-5400 -5403 -8845 -3 1 0
-5398 -5401 -8846 -1 2 0
-5398 -5403 -8846 -1 -3 2 0
-5400 -5401 -8846 -3 -1 2 0
-5400 -5403 -8846 -3 2 0
-5398 -5401 -8847 -1 3 0
-5398 -5402 -8847 -1 -2 3 0
-5399 -5401 -8847 -2 -1 3 0
-5399 -5402 -8847 -2 3 0
-5405 -5408 -8848 -2 1 0
-5405 -5409 -8848 -2 -3 1 0
-5406 -5408 -8848 -3 -2 1 0
-5406 -5409 -8848 -3 1 0
-5404 -5407 -8849 -1 2 0
-5404 -5409 -8849 -1 -3 2 0
-5406 -5407 -8849 -3 -1 2 0
-5406 -5409 -8849 -3 2 0
-5404 -5407 -8850 -1 3 0
-5404 -5408 -8850 -1 -2 3 0
-5405 -5407 -8850 -2 -1 3 0
-5405 -5408 -8850 -2 3 0
-5411 -5414 -8851 -2 1 0
-5411 -5415 -8851 -2 -3 1 0
-5412 -5414 -8851 -3 -2 1 0
-5412 -5415 -8851 -3 1 0
-5410 -5413 -8852 -1 2 0
-5410 -5415 -8852 -1 -3 2 0
-5412 -5413 -8852 -3 -1 2 0
-5412 -5415 -8852 -3 2 0
-5410 -5413 -8853 -1 3 0
-5410 -5414 -8853 -1 -2 3 0
-5411 -5413 -8853 -2 -1 3 0
-5411 -5414 -8853 -2 3 0
-5417 -5420 -8854 -2 1 0
-5417 -5421 -8854 -2 -3 1 0
-5418 -5420 -8854 -3 -2 1 0
-5418 -5421 -8854 -3 1 0
-5416 -5419 -8855 -1 2 0
-5416 -5421 -8855 -1 -3 2 0
-5418 -5419 -8855 -3 -1 2 0
-5418 -5421 -8855 -3 2 0
-5416 -5419 -8856 -1 3 0
-5416 -5420 -8856 -1 -2 3 0
-5417 -5419 -8856 -2 -1 3 0
-5417 -5420 -8856 -2 3 0
-5423 -5426 -8857 -2 1 0
-5423 -5427 -8857 -2 -3 1 0
-5424 -5426 -8857 -3 -2 1 0
-5424 -5427 -8857 -3 1 0
-5422 -5425 -8858 -1 2 0
-5422 -5427 -8858 -1 -3 2 0
-5424 -5425 -8858 -3 -1 2 0
-5424 -5427 -8858 -3 2 0
-5422 -5425 -8859 -1 3 0
-5422 -5426 -8859 -1 -2 3 0
-5423 -5425 -8859 -2 -1 3 0
-5423 -5426 -8859 -2 3 0
-5429 -5432 -8860 -2 1 0
-5429 -5433 -8860 -2 -3 1 0
-5430 -5432 -8860 -3 -2 1 0
-5430 -5433 -8860 -3 1 0
-5428 -5431 -8861 -1 2 0
-5428 -5433 -8861 -1 -3 2 0
-5430 -5431 -8861 -3 -1 2 0
-5430 -5433 -8861 -3 2 0
-5428 -5431 -8862 -1 3 0
-5428 -5432 -8862 -1 -2 3 0
-5429 -5431 -8862 -2 -1 3 0
-5429 -5432 -8862 -2 3 0
-5435 -5438 -8863 -2 1 0
-5435 -5439 -8863 -2 -3 1 0
-5436 -5438 -8863 -3 -2 1 0
-5436 -5439 -8863 -3 1 0
-5434 -5437 -8864 -1 2 0
-5434 -5439 -8864 -1 -3 2 0
-5436 -5437 -8864 -3 -1 2 0
-5436 -5439 -8864 -3 2 0
-5434 -5437 -8865 -1 3 0
-5434 -5438 -8865 -1 -2 3 0
-5435 -5437 -8865 -2 -1 3 0
-5435 -5438 -8865 -2 3 0
-5441 -5444 -8866 -2 1 0
-5441 -5445 -8866 -2 -3 1 0
-5442 -5444 -8866 -3 -2 1 0
-5442 -5445 -8866 -3 1 0
-5440 -5443 -8867 -1 2 0
-5440 -5445 -8867 -1 -3 2 0
-5442 -5443 -8867 -3 -1 2 0
-5442 -5445 -8867 -3 2 0
-5440 -5443 -8868 -1 3 0
-5440 -5444 -8868 -1 -2 3 0
-5441 -5443 -8868 -2 -1 3 0
-5441 -5444 -8868 -2 3 0
-5447 -5450 -8869 -2 1 0
-5447 -5451 -8869 -2 -3 1 0
-5448 -5450 -8869 -3 -2 1 0
-5448 -5451 -8869 -3 1 0
-5446 -5449 -8870 -1 2 0
-5446 -5451 -8870 -1 -3 2 0
-5448 -5449 -8870 -3 -1 2 0
-5448 -5451 -8870 -3 2 0
-5446 -5449 -8871 -1 3 0
-5446 -5450 -8871 -1 -2 3 0
-5447 -5449 -8871 -2 -1 3 0
-5447 -5450 -8871 -2 3 0
-5453 -5456 -8872 -2 1 0
-5453 -5457 -8872 -2 -3 1 0
-5454 -5456 -8872 -3 -2 1 0
-5454 -5457 -8872 -3 1 0
-5452 -5455 -8873 -1 2 0
-5452 -5457 -8873 -1 -3 2 0
-5454 -5455 -8873 -3 -1 2 0
-5454 -5457 -8873 -3 2 0
-5452 -5455 -8874 -1 3 0
-5452 -5456 -8874 -1 -2 3 0
-5453 -5455 -8874 -2 -1 3 0
-5453 -5456 -8874 -2 3 0
-5459 -5462 -8875 -2 1 0
-5459 -5463 -8875 -2 -3 1 0
-5460 -5462 -8875 -3 -2 1 0
-5460 -5463 -8875 -3 1 0
-5458 -5461 -8876 -1 2 0
-5458 -5463 -8876 -1 -3 2 0
-5460 -5461 -8876 -3 -1 2 0
-5460 -5463 -8876 -3 2 0
-5458 -5461 -8877 -1 3 0
-5458 -5462 -8877 -1 -2 3 0
-5459 -5461 -8877 -2 -1 3 0
-5459 -5462 -8877 -2 3 0
-5465 -5468 -8878 -2 1 0
-5465 -5469 -8878 -2 -3 1 0
-5466 -5468 -8878 -3 -2 1 0
-5466 -5469 -8878 -3 1 0
-5464 -5467 -8879 -1 2 0
-5464 -5469 -8879 -1 -3 2 0
-5466 -5467 -8879 -3 -1 2 0
-5466 -5469 -8879 -3 2 0
-5464 -5467 -8880 -1 3 0
-5464 -5468 -8880 -1 -2 3 0
-5465 -5467 -8880 -2 -1 3 0
-5465 -5468 -8880 -2 3 0
-5471 -5474 -8881 -2 1 0
-5471 -5475 -8881 -2 -3 1 0
-5472 -5474 -8881 -3 -2 1 0
-5472 -5475 -8881 -3 1 0
-5470 -5473 -8882 -1 2 0
-5470 -5475 -8882 -1 -3 2 0
-5472 -5473 -8882 -3 -1 2 0
-5472 -5475 -8882 -3 2 0
-5470 -5473 -8883 -1 3 0
-5470 -5474 -8883 -1 -2 3 0
-5471 -5473 -8883 -2 -1 3 0
-5471 -5474 -8883 -2 3 0
-5477 -5480 -8884 -2 1 0
-5477 -5481 -8884 -2 -3 1 0
-5478 -5480 -8884 -3 -2 1 0
-5478 -5481 -8884 -3 1 0
-5476 -5479 -8885 -1 2 0
-5476 -5481 -8885 -1 -3 2 0
-5478 -5479 -8885 -3 -1 2 0
-5478 -5481 -8885 -3 2 0
-5476 -5479 -8886 -1 3 0
-5476 -5480 -8886 -1 -2 3 0
-5477 -5479 -8886 -2 -1 3 0
-5477 -5480 -8886 -2 3 0
-5483 -5486 -8887 -2 1 0
-5483 -5487 -8887 -2 -3 1 0
-5484 -5486 -8887 -3 -2 1 0
-5484 -5487 -8887 -3 1 0
-5482 -5485 -8888 -1 2 0
-5482 -5487 -8888 -1 -3 2 0
-5484 -5485 -8888 -3 -1 2 0
-5484 -5487 -8888 -3 2 0
-5482 -5485 -8889 -1 3 0
-5482 -5486 -8889 -1 -2 3 0
-5483 -5485 -8889 -2 -1 3 0
-5483 -5486 -8889 -2 3 0
-5489 -5492 -8890 -2 1 0
-5489 -5493 -8890 -2 -3 1 0
-5490 -5492 -8890 -3 -2 1 0
-5490 -5493 -8890 -3 1 0
-5488 -5491 -8891 -1 2 0
-5488 -5493 -8891 -1 -3 2 0
-5490 -5491 -8891 -3 -1 2 0
-5490 -5493 -8891 -3 2 0
-5488 -5491 -8892 -1 3 0
-5488 -5492 -8892 -1 -2 3 0
-5489 -5491 -8892 -2 -1 3 0
-5489 -5492 -8892 -2 3 0
-5495 -5498 -8893 -2 1 0
-5495 -5499 -8893 -2 -3 1 0
-5496 -5498 -8893 -3 -2 1 0
-5496 -5499 -8893 -3 1 0
-5494 -5497 -8894 -1 2 0
-5494 -5499 -8894 -1 -3 2 0
-5496 -5497 -8894 -3 -1 2 0
-5496 -5499 -8894 -3 2 0
-5494 -5497 -8895 -1 3 0
-5494 -5498 -8895 -1 -2 3 0
-5495 -5497 -8895 -2 -1 3 0
-5495 -5498 -8895 -2 3 0
-5501 -5504 -8896 -2 1 0
-5501 -5505 -8896 -2 -3 1 0
-5502 -5504 -8896 -3 -2 1 0
-5502 -5505 -8896 -3 1 0
-5500 -5503 -8897 -1 2 0
-5500 -5505 -8897 -1 -3 2 0
-5502 -5503 -8897 -3 -1 2 0
-5502 -5505 -8897 -3 2 0
-5500 -5503 -8898 -1 3 0
-5500 -5504 -8898 -1 -2 3 0
-5501 -5503 -8898 -2 -1 3 0
-5501 -5504 -8898 -2 3 0
-5507 -5510 -8899 -2 1 0
-5507 -5511 -8899 -2 -3 1 0
-5508 -5510 -8899 -3 -2 1 0
-5508 -5511 -8899 -3 1 0
-5506 -5509 -8900 -1 2 0
-5506 -5511 -8900 -1 -3 2 0
-5508 -5509 -8900 -3 -1 2 0
-5508 -5511 -8900 -3 2 0
-5506 -5509 -8901 -1 3 0
-5506 -5510 -8901 -1 -2 3 0
-5507 -5509 -8901 -2 -1 3 0
-5507 -5510 -8901 -2 3 0
-5513 -5516 -8902 -2 1 0
-5513 -5517 -8902 -2 -3 1 0
-5514 -5516 -8902 -3 -2 1 0
-5514 -5517 -8902 -3 1 0
-5512 -5515 -8903 -1 2 0
-5512 -5517 -8903 -1 -3 2 0
-5514 -5515 -8903 -3 -1 2 0
-5514 -5517 -8903 -3 2 0
-5512 -5515 -8904 -1 3 0
-5512 -5516 -8904 -1 -2 3 0
-5513 -5515 -8904 -2 -1 3 0
-5513 -5516 -8904 -2 3 0
-5519 -5522 -8905 -2 1 0
-5519 -5523 -8905 -2 -3 1 0
-5520 -5522 -8905 -3 -2 1 0
-5520 -5523 -8905 -3 1 0
-5518 -5521 -8906 -1 2 0
-5518 -5523 -8906 -1 -3 2 0
-5520 -5521 -8906 -3 -1 2 0
-5520 -5523 -8906 -3 2 0
-5518 -5521 -8907 -1 3 0
-5518 -5522 -8907 -1 -2 3 0
-5519 -5521 -8907 -2 -1 3 0
-5519 -5522 -8907 -2 3 0
-5525 -5528 -8908 -2 1 0
-5525 -5529 -8908 -2 -3 1 0
-5526 -5528 -8908 -3 -2 1 0
-5526 -5529 -8908 -3 1 0
-5524 -5527 -8909 -1 2 0
-5524 -5529 -8909 -1 -3 2 0
-5526 -5527 -8909 -3 -1 2 0
-5526 -5529 -8909 -3 2 0
-5524 -5527 -8910 -1 3 0
-5524 -5528 -8910 -1 -2 3 0
-5525 -5527 -8910 -2 -1 3 0
-5525 -5528 -8910 -2 3 0
-5531 -5534 -8911 -2 1 0
-5531 -5535 -8911 -2 -3 1 0
-5532 -5534 -8911 -3 -2 1 0
-5532 -5535 -8911 -3 1 0
-5530 -5533 -8912 -1 2 0
-5530 -5535 -8912 -1 -3 2 0
-5532 -5533 -8912 -3 -1 2 0
-5532 -5535 -8912 -3 2 0
-5530 -5533 -8913 -1 3 0
-5530 -5534 -8913 -1 -2 3 0
-5531 -5533 -8913 -2 -1 3 0
-5531 -5534 -8913 -2 3 0
-5537 -5540 -8914 -2 1 0
-5537 -5541 -8914 -2 -3 1 0
-5538 -5540 -8914 -3 -2 1 0
-5538 -5541 -8914 -3 1 0
-5536 -5539 -8915 -1 2 0
-5536 -5541 -8915 -1 -3 2 0
-5538 -5539 -8915 -3 -1 2 0
-5538 -5541 -8915 -3 2 0
-5536 -5539 -8916 -1 3 0
-5536 -5540 -8916 -1 -2 3 0
-5537 -5539 -8916 -2 -1 3 0
-5537 -5540 -8916 -2 3 0
-5543 -5546 -8917 -2 1 0
-5543 -5547 -8917 -2 -3 1 0
-5544 -5546 -8917 -3 -2 1 0
-5544 -5547 -8917 -3 1 0
-5542 -5545 -8918 -1 2 0
-5542 -5547 -8918 -1 -3 2 0
-5544 -5545 -8918 -3 -1 2 0
-5544 -5547 -8918 -3 2 0
-5542 -5545 -8919 -1 3 0
-5542 -5546 -8919 -1 -2 3 0
-5543 -5545 -8919 -2 -1 3 0
-5543 -5546 -8919 -2 3 0
-5549 -5552 -8920 -2 1 0
-5549 -5553 -8920 -2 -3 1 0
-5550 -5552 -8920 -3 -2 1 0
-5550 -5553 -8920 -3 1 0
-5548 -5551 -8921 -1 2 0
-5548 -5553 -8921 -1 -3 2 0
-5550 -5551 -8921 -3 -1 2 0
-5550 -5553 -8921 -3 2 0
-5548 -5551 -8922 -1 3 0
-5548 -5552 -8922 -1 -2 3 0
-5549 -5551 -8922 -2 -1 3 0
-5549 -5552 -8922 -2 3 0
-5555 -5558 -8923 -2 1 0
-5555 -5559 -8923 -2 -3 1 0
-5556 -5558 -8923 -3 -2 1 0
-5556 -5559 -8923 -3 1 0
-5554 -5557 -8924 -1 2 0
-5554 -5559 -8924 -1 -3 2 0
-5556 -5557 -8924 -3 -1 2 0
-5556 -5559 -8924 -3 2 0
-5554 -5557 -8925 -1 3 0
-5554 -5558 -8925 -1 -2 3 0
-5555 -5557 -8925 -2 -1 3 0
-5555 -5558 -8925 -2 3 0
-5561 -5564 -8926 -2 1 0
-5561 -5565 -8926 -2 -3 1 0
-5562 -5564 -8926 -3 -2 1 0
-5562 -5565 -8926 -3 1 0
-5560 -5563 -8927 -1 2 0
-5560 -5565 -8927 -1 -3 2 0
-5562 -5563 -8927 -3 -1 2 0
-5562 -5565 -8927 -3 2 0
-5560 -5563 -8928 -1 3 0
-5560 -5564 -8928 -1 -2 3 0
-5561 -5563 -8928 -2 -1 3 0
-5561 -5564 -8928 -2 3 0
-5567 -5570 -8929 -2 1 0
-5567 -5571 -8929 -2 -3 1 0
-5568 -5570 -8929 -3 -2 1 0
-5568 -5571 -8929 -3 1 0
-5566 -5569 -8930 -1 2 0
-5566 -5571 -8930 -1 -3 2 0
-5568 -5569 -8930 -3 -1 2 0
-5568 -5571 -8930 -3 2 0
-5566 -5569 -8931 -1 3 0
-5566 -5570 -8931 -1 -2 3 0
-5567 -5569 -8931 -2 -1 3 0
-5567 -5570 -8931 -2 3 0
-5573 -5576 -8932 -2 1 0
-5573 -5577 -8932 -2 -3 1 0
-5574 -5576 -8932 -3 -2 1 0
-5574 -5577 -8932 -3 1 0
-5572 -5575 -8933 -1 2 0
-5572 -5577 -8933 -1 -3 2 0
-5574 -5575 -8933 -3 -1 2 0
-5574 -5577 -8933 -3 2 0
-5572 -5575 -8934 -1 3 0
-5572 -5576 -8934 -1 -2 3 0
-5573 -5575 -8934 -2 -1 3 0
-5573 -5576 -8934 -2 3 0
-5579 -5582 -8935 -2 1 0
-5579 -5583 -8935 -2 -3 1 0
-5580 -5582 -8935 -3 -2 1 0
-5580 -5583 -8935 -3 1 0
-5578 -5581 -8936 -1 2 0
-5578 -5583 -8936 -1 -3 2 0
-5580 -5581 -8936 -3 -1 2 0
-5580 -5583 -8936 -3 2 0
-5578 -5581 -8937 -1 3 0
-5578 -5582 -8937 -1 -2 3 0
-5579 -5581 -8937 -2 -1 3 0
-5579 -5582 -8937 -2 3 0
-5585 -5588 -8938 -2 1 0
-5585 -5589 -8938 -2 -3 1 0
-5586 -5588 -8938 -3 -2 1 0
-5586 -5589 -8938 -3 1 0
-5584 -5587 -8939 -1 2 0
-5584 -5589 -8939 -1 -3 2 0
-5586 -5587 -8939 -3 -1 2 0
-5586 -5589 -8939 -3 2 0
-5584 -5587 -8940 -1 3 0
-5584 -5588 -8940 -1 -2 3 0
-5585 -5587 -8940 -2 -1 3 0
-5585 -5588 -8940 -2 3 0
-5591 -5594 -8941 -2 1 0
-5591 -5595 -8941 -2 -3 1 0
-5592 -5594 -8941 -3 -2 1 0
-5592 -5595 -8941 -3 1 0
-5590 -5593 -8942 -1 2 0
-5590 -5595 -8942 -1 -3 2 0
-5592 -5593 -8942 -3 -1 2 0
-5592 -5595 -8942 -3 2 0
-5590 -5593 -8943 -1 3 0
-5590 -5594 -8943 -1 -2 3 0
-5591 -5593 -8943 -2 -1 3 0
-5591 -5594 -8943 -2 3 0
-5597 -5600 -8944 -2 1 0
-5597 -5601 -8944 -2 -3 1 0
-5598 -5600 -8944 -3 -2 1 0
-5598 -5601 -8944 -3 1 0
-5596 -5599 -8945 -1 2 0
-5596 -5601 -8945 -1 -3 2 0
-5598 -5599 -8945 -3 -1 2 0
-5598 -5601 -8945 -3 2 0
-5596 -5599 -8946 -1 3 0
-5596 -5600 -8946 -1 -2 3 0
-5597 -5599 -8946 -2 -1 3 0
-5597 -5600 -8946 -2 3 0
-5603 -5606 -8947 -2 1 0
-5603 -5607 -8947 -2 -3 1 0
-5604 -5606 -8947 -3 -2 1 0
-5604 -5607 -8947 -3 1 0
-5602 -5605 -8948 -1 2 0
-5602 -5607 -8948 -1 -3 2 0
-5604 -5605 -8948 -3 -1 2 0
-5604 -5607 -8948 -3 2 0
-5602 -5605 -8949 -1 3 0
-5602 -5606 -8949 -1 -2 3 0
-5603 -5605 -8949 -2 -1 3 0
-5603 -5606 -8949 -2 3 0
-5609 -5612 -8950 -2 1 0
-5609 -5613 -8950 -2 -3 1 0
-5610 -5612 -8950 -3 -2 1 0
-5610 -5613 -8950 -3 1 0
-5608 -5611 -8951 -1 2 0
-5608 -5613 -8951 -1 -3 2 0
-5610 -5611 -8951 -3 -1 2 0
-5610 -5613 -8951 -3 2 0
-5608 -5611 -8952 -1 3 0
-5608 -5612 -8952 -1 -2 3 0
-5609 -5611 -8952 -2 -1 3 0
-5609 -5612 -8952 -2 3 0
-5615 -5618 -8953 -2 1 0
-5615 -5619 -8953 -2 -3 1 0
-5616 -5618 -8953 -3 -2 1 0
-5616 -5619 -8953 -3 1 0
-5614 -5617 -8954 -1 2 0
-5614 -5619 -8954 -1 -3 2 0
-5616 -5617 -8954 -3 -1 2 0
-5616 -5619 -8954 -3 2 0
-5614 -5617 -8955 -1 3 0
-5614 -5618 -8955 -1 -2 3 0
-5615 -5617 -8955 -2 -1 3 0
-5615 -5618 -8955 -2 3 0
-5621 -5624 -8956 -2 1 0
-5621 -5625 -8956 -2 -3 1 0
-5622 -5624 -8956 -3 -2 1 0
-5622 -5625 -8956 -3 1 0
-5620 -5623 -8957 -1 2 0
-5620 -5625 -8957 -1 -3 2 0
-5622 -5623 -8957 -3 -1 2 0
-5622 -5625 -8957 -3 2 0
-5620 -5623 -8958 -1 3 0
-5620 -5624 -8958 -1 -2 3 0
-5621 -5623 -8958 -2 -1 3 0
-5621 -5624 -8958 -2 3 0
-5627 -5630 -8959 -2 1 0
-5627 -5631 -8959 -2 -3 1 0
-5628 -5630 -8959 -3 -2 1 0
-5628 -5631 -8959 -3 1 0
-5626 -5629 -8960 -1 2 0
-5626 -5631 -8960 -1 -3 2 0
-5628 -5629 -8960 -3 -1 2 0
-5628 -5631 -8960 -3 2 0
-5626 -5629 -8961 -1 3 0
-5626 -5630 -8961 -1 -2 3 0
-5627 -5629 -8961 -2 -1 3 0
-5627 -5630 -8961 -2 3 0
-5633 -5636 -8962 -2 1 0
-5633 -5637 -8962 -2 -3 1 0
-5634 -5636 -8962 -3 -2 1 0
-5634 -5637 -8962 -3 1 0
-5632 -5635 -8963 -1 2 0
-5632 -5637 -8963 -1 -3 2 0
-5634 -5635 -8963 -3 -1 2 0
-5634 -5637 -8963 -3 2 0
-5632 -5635 -8964 -1 3 0
-5632 -5636 -8964 -1 -2 3 0
-5633 -5635 -8964 -2 -1 3 0
-5633 -5636 -8964 -2 3 0
-5639 -5642 -8965 -2 1 0
-5639 -5643 -8965 -2 -3 1 0
-5640 -5642 -8965 -3 -2 1 0
-5640 -5643 -8965 -3 1 0
-5638 -5641 -8966 -1 2 0
-5638 -5643 -8966 -1 -3 2 0
-5640 -5641 -8966 -3 -1 2 0
-5640 -5643 -8966 -3 2 0
-5638 -5641 -8967 -1 3 0
-5638 -5642 -8967 -1 -2 3 0
-5639 -5641 -8967 -2 -1 3 0
-5639 -5642 -8967 -2 3 0
-5645 -5648 -8968 -2 1 0
-5645 -5649 -8968 -2 -3 1 0
-5646 -5648 -8968 -3 -2 1 0
-5646 -5649 -8968 -3 1 0
-5644 -5647 -8969 -1 2 0
-5644 -5649 -8969 -1 -3 2 0
-5646 -5647 -8969 -3 -1 2 0
-5646 -5649 -8969 -3 2 0
-5644 -5647 -8970 -1 3 0
-5644 -5648 -8970 -1 -2 3 0
-5645 -5647 -8970 -2 -1 3 0
-5645 -5648 -8970 -2 3 0
-5651 -5654 -8971 -2 1 0
-5651 -5655 -8971 -2 -3 1 0
-5652 -5654 -8971 -3 -2 1 0
-5652 -5655 -8971 -3 1 0
-5650 -5653 -8972 -1 2 0
-5650 -5655 -8972 -1 -3 2 0
-5652 -5653 -8972 -3 -1 2 0
-5652 -5655 -8972 -3 2 0
-5650 -5653 -8973 -1 3 0
-5650 -5654 -8973 -1 -2 3 0
-5651 -5653 -8973 -2 -1 3 0
-5651 -5654 -8973 -2 3 0
-5657 -5660 -8974 -2 1 0
-5657 -5661 -8974 -2 -3 1 0
-5658 -5660 -8974 -3 -2 1 0
-5658 -5661 -8974 -3 1 0
-5656 -5659 -8975 -1 2 0
-5656 -5661 -8975 -1 -3 2 0
-5658 -5659 -8975 -3 -1 2 0
-5658 -5661 -8975 -3 2 0
-5656 -5659 -8976 -1 3 0
-5656 -5660 -8976 -1 -2 3 0
-5657 -5659 -8976 -2 -1 3 0
-5657 -5660 -8976 -2 3 0
-5663 -5666 -8977 -2 1 0
-5663 -5667 -8977 -2 -3 1 0
-5664 -5666 -8977 -3 -2 1 0
-5664 -5667 -8977 -3 1 0
-5662 -5665 -8978 -1 2 0
-5662 -5667 -8978 -1 -3 2 0
-5664 -5665 -8978 -3 -1 2 0
-5664 -5667 -8978 -3 2 0
-5662 -5665 -8979 -1 3 0
-5662 -5666 -8979 -1 -2 3 0
-5663 -5665 -8979 -2 -1 3 0
-5663 -5666 -8979 -2 3 0
-5669 -5672 -8980 -2 1 0
-5669 -5673 -8980 -2 -3 1 0
-5670 -5672 -8980 -3 -2 1 0
-5670 -5673 -8980 -3 1 0
-5668 -5671 -8981 -1 2 0
-5668 -5673 -8981 -1 -3 2 0
-5670 -5671 -8981 -3 -1 2 0
-5670 -5673 -8981 -3 2 0
-5668 -5671 -8982 -1 3 0
-5668 -5672 -8982 -1 -2 3 0
-5669 -5671 -8982 -2 -1 3 0
-5669 -5672 -8982 -2 3 0
-5675 -5678 -8983 -2 1 0
-5675 -5679 -8983 -2 -3 1 0
-5676 -5678 -8983 -3 -2 1 0
-5676 -5679 -8983 -3 1 0
-5674 -5677 -8984 -1 2 0
-5674 -5679 -8984 -1 -3 2 0
-5676 -5677 -8984 -3 -1 2 0
-5676 -5679 -8984 -3 2 0
-5674 -5677 -8985 -1 3 0
-5674 -5678 -8985 -1 -2 3 0
-5675 -5677 -8985 -2 -1 3 0
-5675 -5678 -8985 -2 3 0
-5681 -5684 -8986 -2 1 0
-5681 -5685 -8986 -2 -3 1 0
-5682 -5684 -8986 -3 -2 1 0
-5682 -5685 -8986 -3 1 0
-5680 -5683 -8987 -1 2 0
-5680 -5685 -8987 -1 -3 2 0
-5682 -5683 -8987 -3 -1 2 0
-5682 -5685 -8987 -3 2 0
-5680 -5683 -8988 -1 3 0
-5680 -5684 -8988 -1 -2 3 0
-5681 -5683 -8988 -2 -1 3 0
-5681 -5684 -8988 -2 3 0
-5687 -5690 -8989 -2 1 0
-5687 -5691 -8989 -2 -3 1 0
-5688 -5690 -8989 -3 -2 1 0
-5688 -5691 -8989 -3 1 0
-5686 -5689 -8990 -1 2 0
-5686 -5691 -8990 -1 -3 2 0
-5688 -5689 -8990 -3 -1 2 0
-5688 -5691 -8990 -3 2 0
-5686 -5689 -8991 -1 3 0
-5686 -5690 -8991 -1 -2 3 0
-5687 -5689 -8991 -2 -1 3 0
-5687 -5690 -8991 -2 3 0
-5693 -5696 -8992 -2 1 0
-5693 -5697 -8992 -2 -3 1 0
-5694 -5696 -8992 -3 -2 1 0
-5694 -5697 -8992 -3 1 0
-5692 -5695 -8993 -1 2 0
-5692 -5697 -8993 -1 -3 2 0
-5694 -5695 -8993 -3 -1 2 0
-5694 -5697 -8993 -3 2 0
-5692 -5695 -8994 -1 3 0
-5692 -5696 -8994 -1 -2 3 0
-5693 -5695 -8994 -2 -1 3 0
-5693 -5696 -8994 -2 3 0
-5699 -5702 -8995 -2 1 0
-5699 -5703 -8995 -2 -3 1 0
-5700 -5702 -8995 -3 -2 1 0
-5700 -5703 -8995 -3 1 0
-5698 -5701 -8996 -1 2 0
-5698 -5703 -8996 -1 -3 2 0
-5700 -5701 -8996 -3 -1 2 0
-5700 -5703 -8996 -3 2 0
-5698 -5701 -8997 -1 3 0
-5698 -5702 -8997 -1 -2 3 0
-5699 -5701 -8997 -2 -1 3 0
-5699 -5702 -8997 -2 3 0
-5705 -5708 -8998 -2 1 0
-5705 -5709 -8998 -2 -3 1 0
-5706 -5708 -8998 -3 -2 1 0
-5706 -5709 -8998 -3 1 0
-5704 -5707 -8999 -1 2 0
-5704 -5709 -8999 -1 -3 2 0
-5706 -5707 -8999 -3 -1 2 0
-5706 -5709 -8999 -3 2 0
-5704 -5707 -9000 -1 3 0
-5704 -5708 -9000 -1 -2 3 0
-5705 -5707 -9000 -2 -1 3 0
-5705 -5708 -9000 -2 3 0
-5711 -5714 -9001 -2 1 0
-5711 -5715 -9001 -2 -3 1 0
-5712 -5714 -9001 -3 -2 1 0
-5712 -5715 -9001 -3 1 0
-5710 -5713 -9002 -1 2 0
-5710 -5715 -9002 -1 -3 2 0
-5712 -5713 -9002 -3 -1 2 0
-5712 -5715 -9002 -3 2 0
-5710 -5713 -9003 -1 3 0
-5710 -5714 -9003 -1 -2 3 0
-5711 -5713 -9003 -2 -1 3 0
-5711 -5714 -9003 -2 3 0
-5717 -5720 -9004 -2 1 0
-5717 -5721 -9004 -2 -3 1 0
-5718 -5720 -9004 -3 -2 1 0
-5718 -5721 -9004 -3 1 0
-5716 -5719 -9005 -1 2 0
-5716 -5721 -9005 -1 -3 2 0
-5718 -5719 -9005 -3 -1 2 0
-5718 -5721 -9005 -3 2 0
-5716 -5719 -9006 -1 3 0
-5716 -5720 -9006 -1 -2 3 0
-5717 -5719 -9006 -2 -1 3 0
-5717 -5720 -9006 -2 3 0
-5723 -5726 -9007 -2 1 0
-5723 -5727 -9007 -2 -3 1 0
-5724 -5726 -9007 -3 -2 1 0
-5724 -5727 -9007 -3 1 0
-5722 -5725 -9008 -1 2 0
-5722 -5727 -9008 -1 -3 2 0
-5724 -5725 -9008 -3 -1 2 0
-5724 -5727 -9008 -3 2 0
-5722 -5725 -9009 -1 3 0
-5722 -5726 -9009 -1 -2 3 0
-5723 -5725 -9009 -2 -1 3 0
-5723 -5726 -9009 -2 3 0
-5729 -5732 -9010 -2 1 0
-5729 -5733 -9010 -2 -3 1 0
-5730 -5732 -9010 -3 -2 1 0
-5730 -5733 -9010 -3 1 0
-5728 -5731 -9011 -1 2 0
-5728 -5733 -9011 -1 -3 2 0
-5730 -5731 -9011 -3 -1 2 0
-5730 -5733 -9011 -3 2 0
-5728 -5731 -9012 -1 3 0
-5728 -5732 -9012 -1 -2 3 0
-5729 -5731 -9012 -2 -1 3 0
-5729 -5732 -9012 -2 3 0
-5735 -5738 -9013 -2 1 0
-5735 -5739 -9013 -2 -3 1 0
-5736 -5738 -9013 -3 -2 1 0
-5736 -5739 -9013 -3 1 0
-5734 -5737 -9014 -1 2 0
-5734 -5739 -9014 -1 -3 2 0
-5736 -5737 -9014 -3 -1 2 0
-5736 -5739 -9014 -3 2 0
-5734 -5737 -9015 -1 3 0
-5734 -5738 -9015 -1 -2 3 0
-5735 -5737 -9015 -2 -1 3 0
-5735 -5738 -9015 -2 3 0
-5741 -5744 -9016 -2 1 0
-5741 -5745 -9016 -2 -3 1 0
-5742 -5744 -9016 -3 -2 1 0
-5742 -5745 -9016 -3 1 0
-5740 -5743 -9017 -1 2 0
-5740 -5745 -9017 -1 -3 2 0
-5742 -5743 -9017 -3 -1 2 0
-5742 -5745 -9017 -3 2 0
-5740 -5743 -9018 -1 3 0
-5740 -5744 -9018 -1 -2 3 0
-5741 -5743 -9018 -2 -1 3 0
-5741 -5744 -9018 -2 3 0
-5747 -5750 -9019 -2 1 0
-5747 -5751 -9019 -2 -3 1 0
-5748 -5750 -9019 -3 -2 1 0
-5748 -5751 -9019 -3 1 0
-5746 -5749 -9020 -1 2 0
-5746 -5751 -9020 -1 -3 2 0
-5748 -5749 -9020 -3 -1 2 0
-5748 -5751 -9020 -3 2 0
-5746 -5749 -9021 -1 3 0
-5746 -5750 -9021 -1 -2 3 0
-5747 -5749 -9021 -2 -1 3 0
-5747 -5750 -9021 -2 3 0
-5753 -5756 -9022 -2 1 0
-5753 -5757 -9022 -2 -3 1 0
-5754 -5756 -9022 -3 -2 1 0
-5754 -5757 -9022 -3 1 0
-5752 -5755 -9023 -1 2 0
-5752 -5757 -9023 -1 -3 2 0
-5754 -5755 -9023 -3 -1 2 0
-5754 -5757 -9023 -3 2 0
-5752 -5755 -9024 -1 3 0
-5752 -5756 -9024 -1 -2 3 0
-5753 -5755 -9024 -2 -1 3 0
-5753 -5756 -9024 -2 3 0
-5759 -5762 -9025 -2 1 0
-5759 -5763 -9025 -2 -3 1 0
-5760 -5762 -9025 -3 -2 1 0
-5760 -5763 -9025 -3 1 0
-5758 -5761 -9026 -1 2 0
-5758 -5763 -9026 -1 -3 2 0
-5760 -5761 -9026 -3 -1 2 0
-5760 -5763 -9026 -3 2 0
-5758 -5761 -9027 -1 3 0
-5758 -5762 -9027 -1 -2 3 0
-5759 -5761 -9027 -2 -1 3 0
-5759 -5762 -9027 -2 3 0
-5765 -5768 -9028 -2 1 0
-5765 -5769 -9028 -2 -3 1 0
-5766 -5768 -9028 -3 -2 1 0
-5766 -5769 -9028 -3 1 0
-5764 -5767 -9029 -1 2 0
-5764 -5769 -9029 -1 -3 2 0
-5766 -5767 -9029 -3 -1 2 0
-5766 -5769 -9029 -3 2 0
-5764 -5767 -9030 -1 3 0
-5764 -5768 -9030 -1 -2 3 0
-5765 -5767 -9030 -2 -1 3 0
-5765 -5768 -9030 -2 3 0
-5771 -5774 -9031 -2 1 0
-5771 -5775 -9031 -2 -3 1 0
-5772 -5774 -9031 -3 -2 1 0
-5772 -5775 -9031 -3 1 0
-5770 -5773 -9032 -1 2 0
-5770 -5775 -9032 -1 -3 2 0
-5772 -5773 -9032 -3 -1 2 0
-5772 -5775 -9032 -3 2 0
-5770 -5773 -9033 -1 3 0
-5770 -5774 -9033 -1 -2 3 0
-5771 -5773 -9033 -2 -1 3 0
-5771 -5774 -9033 -2 3 0
-5777 -5780 -9034 -2 1 0
-5777 -5781 -9034 -2 -3 1 0
-5778 -5780 -9034 -3 -2 1 0
-5778 -5781 -9034 -3 1 0
-5776 -5779 -9035 -1 2 0
-5776 -5781 -9035 -1 -3 2 0
-5778 -5779 -9035 -3 -1 2 0
-5778 -5781 -9035 -3 2 0
-5776 -5779 -9036 -1 3 0
-5776 -5780 -9036 -1 -2 3 0
-5777 -5779 -9036 -2 -1 3 0
-5777 -5780 -9036 -2 3 0
-5783 -5786 -9037 -2 1 0
-5783 -5787 -9037 -2 -3 1 0
-5784 -5786 -9037 -3 -2 1 0
-5784 -5787 -9037 -3 1 0
-5782 -5785 -9038 -1 2 0
-5782 -5787 -9038 -1 -3 2 0
-5784 -5785 -9038 -3 -1 2 0
-5784 -5787 -9038 -3 2 0
-5782 -5785 -9039 -1 3 0
-5782 -5786 -9039 -1 -2 3 0
-5783 -5785 -9039 -2 -1 3 0
-5783 -5786 -9039 -2 3 0
-5789 -5792 -9040 -2 1 0
-5789 -5793 -9040 -2 -3 1 0
-5790 -5792 -9040 -3 -2 1 0
-5790 -5793 -9040 -3 1 0
-5788 -5791 -9041 -1 2 0
-5788 -5793 -9041 -1 -3 2 0
-5790 -5791 -9041 -3 -1 2 0
-5790 -5793 -9041 -3 2 0
-5788 -5791 -9042 -1 3 0
-5788 -5792 -9042 -1 -2 3 0
-5789 -5791 -9042 -2 -1 3 0
-5789 -5792 -9042 -2 3 0
-5795 -5798 -9043 -2 1 0
-5795 -5799 -9043 -2 -3 1 0
-5796 -5798 -9043 -3 -2 1 0
-5796 -5799 -9043 -3 1 0
-5794 -5797 -9044 -1 2 0
-5794 -5799 -9044 -1 -3 2 0
-5796 -5797 -9044 -3 -1 2 0
-5796 -5799 -9044 -3 2 0
-5794 -5797 -9045 -1 3 0
-5794 -5798 -9045 -1 -2 3 0
-5795 -5797 -9045 -2 -1 3 0
-5795 -5798 -9045 -2 3 0
-5801 -5804 -9046 -2 1 0
-5801 -5805 -9046 -2 -3 1 0
-5802 -5804 -9046 -3 -2 1 0
-5802 -5805 -9046 -3 1 0
-5800 -5803 -9047 -1 2 0
-5800 -5805 -9047 -1 -3 2 0
-5802 -5803 -9047 -3 -1 2 0
-5802 -5805 -9047 -3 2 0
-5800 -5803 -9048 -1 3 0
-5800 -5804 -9048 -1 -2 3 0
-5801 -5803 -9048 -2 -1 3 0
-5801 -5804 -9048 -2 3 0
-5807 -5810 -9049 -2 1 0
-5807 -5811 -9049 -2 -3 1 0
-5808 -5810 -9049 -3 -2 1 0
-5808 -5811 -9049 -3 1 0
-5806 -5809 -9050 -1 2 0
-5806 -5811 -9050 -1 -3 2 0
-5808 -5809 -9050 -3 -1 2 0
-5808 -5811 -9050 -3 2 0
-5806 -5809 -9051 -1 3 0
-5806 -5810 -9051 -1 -2 3 0
-5807 -5809 -9051 -2 -1 3 0
-5807 -5810 -9051 -2 3 0
-5813 -5816 -9052 -2 1 0
-5813 -5817 -9052 -2 -3 1 0
-5814 -5816 -9052 -3 -2 1 0
-5814 -5817 -9052 -3 1 0
-5812 -5815 -9053 -1 2 0
-5812 -5817 -9053 -1 -3 2 0
-5814 -5815 -9053 -3 -1 2 0
-5814 -5817 -9053 -3 2 0
-5812 -5815 -9054 -1 3 0
-5812 -5816 -9054 -1 -2 3 0
-5813 -5815 -9054 -2 -1 3 0
-5813 -5816 -9054 -2 3 0
-5819 -5822 -9055 -2 1 0
-5819 -5823 -9055 -2 -3 1 0
-5820 -5822 -9055 -3 -2 1 0
-5820 -5823 -9055 -3 1 0
-5818 -5821 -9056 -1 2 0
-5818 -5823 -9056 -1 -3 2 0
-5820 -5821 -9056 -3 -1 2 0
-5820 -5823 -9056 -3 2 0
-5818 -5821 -9057 -1 3 0
-5818 -5822 -9057 -1 -2 3 0
-5819 -5821 -9057 -2 -1 3 0
-5819 -5822 -9057 -2 3 0
-5825 -5828 -9058 -2 1 0
-5825 -5829 -9058 -2 -3 1 0
-5826 -5828 -9058 -3 -2 1 0
-5826 -5829 -9058 -3 1 0
-5824 -5827 -9059 -1 2 0
-5824 -5829 -9059 -1 -3 2 0
-5826 -5827 -9059 -3 -1 2 0
-5826 -5829 -9059 -3 2 0
-5824 -5827 -9060 -1 3 0
-5824 -5828 -9060 -1 -2 3 0
-5825 -5827 -9060 -2 -1 3 0
-5825 -5828 -9060 -2 3 0
-5831 -5834 -9061 -2 1 0
-5831 -5835 -9061 -2 -3 1 0
-5832 -5834 -9061 -3 -2 1 0
-5832 -5835 -9061 -3 1 0
-5830 -5833 -9062 -1 2 0
-5830 -5835 -9062 -1 -3 2 0
-5832 -5833 -9062 -3 -1 2 0
-5832 -5835 -9062 -3 2 0
-5830 -5833 -9063 -1 3 0
-5830 -5834 -9063 -1 -2 3 0
-5831 -5833 -9063 -2 -1 3 0
-5831 -5834 -9063 -2 3 0
-5837 -5840 -9064 -2 1 0
-5837 -5841 -9064 -2 -3 1 0
-5838 -5840 -9064 -3 -2 1 0
-5838 -5841 -9064 -3 1 0
-5836 -5839 -9065 -1 2 0
-5836 -5841 -9065 -1 -3 2 0
-5838 -5839 -9065 -3 -1 2 0
-5838 -5841 -9065 -3 2 0
-5836 -5839 -9066 -1 3 0
-5836 -5840 -9066 -1 -2 3 0
-5837 -5839 -9066 -2 -1 3 0
-5837 -5840 -9066 -2 3 0
-5843 -5846 -9067 -2 1 0
-5843 -5847 -9067 -2 -3 1 0
-5844 -5846 -9067 -3 -2 1 0
-5844 -5847 -9067 -3 1 0
-5842 -5845 -9068 -1 2 0
-5842 -5847 -9068 -1 -3 2 0
-5844 -5845 -9068 -3 -1 2 0
-5844 -5847 -9068 -3 2 0
-5842 -5845 -9069 -1 3 0
-5842 -5846 -9069 -1 -2 3 0
-5843 -5845 -9069 -2 -1 3 0
-5843 -5846 -9069 -2 3 0
-5849 -5852 -9070 -2 1 0
-5849 -5853 -9070 -2 -3 1 0
-5850 -5852 -9070 -3 -2 1 0
-5850 -5853 -9070 -3 1 0
-5848 -5851 -9071 -1 2 0
-5848 -5853 -9071 -1 -3 2 0
-5850 -5851 -9071 -3 -1 2 0
-5850 -5853 -9071 -3 2 0
-5848 -5851 -9072 -1 3 0
-5848 -5852 -9072 -1 -2 3 0
-5849 -5851 -9072 -2 -1 3 0
-5849 -5852 -9072 -2 3 0
-5855 -5858 -9073 -2 1 0
-5855 -5859 -9073 -2 -3 1 0
-5856 -5858 -9073 -3 -2 1 0
-5856 -5859 -9073 -3 1 0
-5854 -5857 -9074 -1 2 0
-5854 -5859 -9074 -1 -3 2 0
-5856 -5857 -9074 -3 -1 2 0
-5856 -5859 -9074 -3 2 0
-5854 -5857 -9075 -1 3 0
-5854 -5858 -9075 -1 -2 3 0
-5855 -5857 -9075 -2 -1 3 0
-5855 -5858 -9075 -2 3 0
-5861 -5864 -9076 -2 1 0
-5861 -5865 -9076 -2 -3 1 0
-5862 -5864 -9076 -3 -2 1 0
-5862 -5865 -9076 -3 1 0
-5860 -5863 -9077 -1 2 0
-5860 -5865 -9077 -1 -3 2 0
-5862 -5863 -9077 -3 -1 2 0
-5862 -5865 -9077 -3 2 0
-5860 -5863 -9078 -1 3 0
-5860 -5864 -9078 -1 -2 3 0
-5861 -5863 -9078 -2 -1 3 0
-5861 -5864 -9078 -2 3 0
-5867 -5870 -9079 -2 1 0
-5867 -5871 -9079 -2 -3 1 0
-5868 -5870 -9079 -3 -2 1 0
-5868 -5871 -9079 -3 1 0
-5866 -5869 -9080 -1 2 0
-5866 -5871 -9080 -1 -3 2 0
-5868 -5869 -9080 -3 -1 2 0
-5868 -5871 -9080 -3 2 0
-5866 -5869 -9081 -1 3 0
-5866 -5870 -9081 -1 -2 3 0
-5867 -5869 -9081 -2 -1 3 0
-5867 -5870 -9081 -2 3 0
-5873 -5876 -9082 -2 1 0
-5873 -5877 -9082 -2 -3 1 0
-5874 -5876 -9082 -3 -2 1 0
-5874 -5877 -9082 -3 1 0
-5872 -5875 -9083 -1 2 0
-5872 -5877 -9083 -1 -3 2 0
-5874 -5875 -9083 -3 -1 2 0
-5874 -5877 -9083 -3 2 0
-5872 -5875 -9084 -1 3 0
-5872 -5876 -9084 -1 -2 3 0
-5873 -5875 -9084 -2 -1 3 0
-5873 -5876 -9084 -2 3 0
-5879 -5882 -9085 -2 1 0
-5879 -5883 -9085 -2 -3 1 0
-5880 -5882 -9085 -3 -2 1 0
-5880 -5883 -9085 -3 1 0
-5878 -5881 -9086 -1 2 0
-5878 -5883 -9086 -1 -3 2 0
-5880 -5881 -9086 -3 -1 2 0
-5880 -5883 -9086 -3 2 0
-5878 -5881 -9087 -1 3 0
-5878 -5882 -9087 -1 -2 3 0
-5879 -5881 -9087 -2 -1 3 0
-5879 -5882 -9087 -2 3 0
-5885 -5888 -9088 -2 1 0
-5885 -5889 -9088 -2 -3 1 0
-5886 -5888 -9088 -3 -2 1 0
-5886 -5889 -9088 -3 1 0
-5884 -5887 -9089 -1 2 0
-5884 -5889 -9089 -1 -3 2 0
-5886 -5887 -9089 -3 -1 2 0
-5886 -5889 -9089 -3 2 0
-5884 -5887 -9090 -1 3 0
-5884 -5888 -9090 -1 -2 3 0
-5885 -5887 -9090 -2 -1 3 0
-5885 -5888 -9090 -2 3 0
-5891 -5894 -9091 -2 1 0
-5891 -5895 -9091 -2 -3 1 0
-5892 -5894 -9091 -3 -2 1 0
-5892 -5895 -9091 -3 1 0
-5890 -5893 -9092 -1 2 0
-5890 -5895 -9092 -1 -3 2 0
-5892 -5893 -9092 -3 -1 2 0
-5892 -5895 -9092 -3 2 0
-5890 -5893 -9093 -1 3 0
-5890 -5894 -9093 -1 -2 3 0
-5891 -5893 -9093 -2 -1 3 0
-5891 -5894 -9093 -2 3 0
-5897 -5900 -9094 -2 1 0
-5897 -5901 -9094 -2 -3 1 0
-5898 -5900 -9094 -3 -2 1 0
-5898 -5901 -9094 -3 1 0
-5896 -5899 -9095 -1 2 0
-5896 -5901 -9095 -1 -3 2 0
-5898 -5899 -9095 -3 -1 2 0
-5898 -5901 -9095 -3 2 0
-5896 -5899 -9096 -1 3 0
-5896 -5900 -9096 -1 -2 3 0
-5897 -5899 -9096 -2 -1 3 0
-5897 -5900 -9096 -2 3 0
-5903 -5906 -9097 -2 1 0
-5903 -5907 -9097 -2 -3 1 0
-5904 -5906 -9097 -3 -2 1 0
-5904 -5907 -9097 -3 1 0
-5902 -5905 -9098 -1 2 0
-5902 -5907 -9098 -1 -3 2 0
-5904 -5905 -9098 -3 -1 2 0
-5904 -5907 -9098 -3 2 0
-5902 -5905 -9099 -1 3 0
-5902 -5906 -9099 -1 -2 3 0
-5903 -5905 -9099 -2 -1 3 0
-5903 -5906 -9099 -2 3 0
-5909 -5912 -9100 -2 1 0
-5909 -5913 -9100 -2 -3 1 0
-5910 -5912 -9100 -3 -2 1 0
-5910 -5913 -9100 -3 1 0
-5908 -5911 -9101 -1 2 0
-5908 -5913 -9101 -1 -3 2 0
-5910 -5911 -9101 -3 -1 2 0
-5910 -5913 -9101 -3 2 0
-5908 -5911 -9102 -1 3 0
-5908 -5912 -9102 -1 -2 3 0
-5909 -5911 -9102 -2 -1 3 0
-5909 -5912 -9102 -2 3 0
-5915 -5918 -9103 -2 1 0
-5915 -5919 -9103 -2 -3 1 0
-5916 -5918 -9103 -3 -2 1 0
-5916 -5919 -9103 -3 1 0
-5914 -5917 -9104 -1 2 0
-5914 -5919 -9104 -1 -3 2 0
-5916 -5917 -9104 -3 -1 2 0
-5916 -5919 -9104 -3 2 0
-5914 -5917 -9105 -1 3 0
-5914 -5918 -9105 -1 -2 3 0
-5915 -5917 -9105 -2 -1 3 0
-5915 -5918 -9105 -2 3 0
-5921 -5924 -9106 -2 1 0
-5921 -5925 -9106 -2 -3 1 0
-5922 -5924 -9106 -3 -2 1 0
-5922 -5925 -9106 -3 1 0
-5920 -5923 -9107 -1 2 0
-5920 -5925 -9107 -1 -3 2 0
-5922 -5923 -9107 -3 -1 2 0
-5922 -5925 -9107 -3 2 0
-5920 -5923 -9108 -1 3 0
-5920 -5924 -9108 -1 -2 3 0
-5921 -5923 -9108 -2 -1 3 0
-5921 -5924 -9108 -2 3 0
-5927 -5930 -9109 -2 1 0
-5927 -5931 -9109 -2 -3 1 0
-5928 -5930 -9109 -3 -2 1 0
-5928 -5931 -9109 -3 1 0
-5926 -5929 -9110 -1 2 0
-5926 -5931 -9110 -1 -3 2 0
-5928 -5929 -9110 -3 -1 2 0
-5928 -5931 -9110 -3 2 0
-5926 -5929 -9111 -1 3 0
-5926 -5930 -9111 -1 -2 3 0
-5927 -5929 -9111 -2 -1 3 0
-5927 -5930 -9111 -2 3 0
-5933 -5936 -9112 -2 1 0
-5933 -5937 -9112 -2 -3 1 0
-5934 -5936 -9112 -3 -2 1 0
-5934 -5937 -9112 -3 1 0
-5932 -5935 -9113 -1 2 0
-5932 -5937 -9113 -1 -3 2 0
-5934 -5935 -9113 -3 -1 2 0
-5934 -5937 -9113 -3 2 0
-5932 -5935 -9114 -1 3 0
-5932 -5936 -9114 -1 -2 3 0
-5933 -5935 -9114 -2 -1 3 0
-5933 -5936 -9114 -2 3 0
-5939 -5942 -9115 -2 1 0
-5939 -5943 -9115 -2 -3 1 0
-5940 -5942 -9115 -3 -2 1 0
-5940 -5943 -9115 -3 1 0
-5938 -5941 -9116 -1 2 0
-5938 -5943 -9116 -1 -3 2 0
-5940 -5941 -9116 -3 -1 2 0
-5940 -5943 -9116 -3 2 0
-5938 -5941 -9117 -1 3 0
-5938 -5942 -9117 -1 -2 3 0
-5939 -5941 -9117 -2 -1 3 0
-5939 -5942 -9117 -2 3 0
-5945 -5948 -9118 -2 1 0
-5945 -5949 -9118 -2 -3 1 0
-5946 -5948 -9118 -3 -2 1 0
-5946 -5949 -9118 -3 1 0
-5944 -5947 -9119 -1 2 0
-5944 -5949 -9119 -1 -3 2 0
-5946 -5947 -9119 -3 -1 2 0
-5946 -5949 -9119 -3 2 0
-5944 -5947 -9120 -1 3 0
-5944 -5948 -9120 -1 -2 3 0
-5945 -5947 -9120 -2 -1 3 0
-5945 -5948 -9120 -2 3 0
-5951 -5954 -9121 -2 1 0
-5951 -5955 -9121 -2 -3 1 0
-5952 -5954 -9121 -3 -2 1 0
-5952 -5955 -9121 -3 1 0
-5950 -5953 -9122 -1 2 0
-5950 -5955 -9122 -1 -3 2 0
-5952 -5953 -9122 -3 -1 2 0
-5952 -5955 -9122 -3 2 0
-5950 -5953 -9123 -1 3 0
-5950 -5954 -9123 -1 -2 3 0
-5951 -5953 -9123 -2 -1 3 0
-5951 -5954 -9123 -2 3 0
-5957 -5960 -9124 -2 1 0
-5957 -5961 -9124 -2 -3 1 0
-5958 -5960 -9124 -3 -2 1 0
-5958 -5961 -9124 -3 1 0
-5956 -5959 -9125 -1 2 0
-5956 -5961 -9125 -1 -3 2 0
-5958 -5959 -9125 -3 -1 2 0
-5958 -5961 -9125 -3 2 0
-5956 -5959 -9126 -1 3 0
-5956 -5960 -9126 -1 -2 3 0
-5957 -5959 -9126 -2 -1 3 0
-5957 -5960 -9126 -2 3 0
-5963 -5966 -9127 -2 1 0
-5963 -5967 -9127 -2 -3 1 0
-5964 -5966 -9127 -3 -2 1 0
-5964 -5967 -9127 -3 1 0
-5962 -5965 -9128 -1 2 0
-5962 -5967 -9128 -1 -3 2 0
-5964 -5965 -9128 -3 -1 2 0
-5964 -5967 -9128 -3 2 0
-5962 -5965 -9129 -1 3 0
-5962 -5966 -9129 -1 -2 3 0
-5963 -5965 -9129 -2 -1 3 0
-5963 -5966 -9129 -2 3 0
-5969 -5972 -9130 -2 1 0
-5969 -5973 -9130 -2 -3 1 0
-5970 -5972 -9130 -3 -2 1 0
-5970 -5973 -9130 -3 1 0
-5968 -5971 -9131 -1 2 0
-5968 -5973 -9131 -1 -3 2 0
-5970 -5971 -9131 -3 -1 2 0
-5970 -5973 -9131 -3 2 0
-5968 -5971 -9132 -1 3 0
-5968 -5972 -9132 -1 -2 3 0
-5969 -5971 -9132 -2 -1 3 0
-5969 -5972 -9132 -2 3 0
-5975 -5978 -9133 -2 1 0
-5975 -5979 -9133 -2 -3 1 0
-5976 -5978 -9133 -3 -2 1 0
-5976 -5979 -9133 -3 1 0
-5974 -5977 -9134 -1 2 0
-5974 -5979 -9134 -1 -3 2 0
-5976 -5977 -9134 -3 -1 2 0
-5976 -5979 -9134 -3 2 0
-5974 -5977 -9135 -1 3 0
-5974 -5978 -9135 -1 -2 3 0
-5975 -5977 -9135 -2 -1 3 0
-5975 -5978 -9135 -2 3 0
-5981 -5984 -9136 -2 1 0
-5981 -5985 -9136 -2 -3 1 0
-5982 -5984 -9136 -3 -2 1 0
-5982 -5985 -9136 -3 1 0
-5980 -5983 -9137 -1 2 0
-5980 -5985 -9137 -1 -3 2 0
-5982 -5983 -9137 -3 -1 2 0
-5982 -5985 -9137 -3 2 0
-5980 -5983 -9138 -1 3 0
-5980 -5984 -9138 -1 -2 3 0
-5981 -5983 -9138 -2 -1 3 0
-5981 -5984 -9138 -2 3 0
-5987 -5990 -9139 -2 1 0
-5987 -5991 -9139 -2 -3 1 0
-5988 -5990 -9139 -3 -2 1 0
-5988 -5991 -9139 -3 1 0
-5986 -5989 -9140 -1 2 0
-5986 -5991 -9140 -1 -3 2 0
-5988 -5989 -9140 -3 -1 2 0
-5988 -5991 -9140 -3 2 0
-5986 -5989 -9141 -1 3 0
-5986 -5990 -9141 -1 -2 3 0
-5987 -5989 -9141 -2 -1 3 0
-5987 -5990 -9141 -2 3 0
-5993 -5996 -9142 -2 1 0
-5993 -5997 -9142 -2 -3 1 0
-5994 -5996 -9142 -3 -2 1 0
-5994 -5997 -9142 -3 1 0
-5992 -5995 -9143 -1 2 0
-5992 -5997 -9143 -1 -3 2 0
-5994 -5995 -9143 -3 -1 2 0
-5994 -5997 -9143 -3 2 0
-5992 -5995 -9144 -1 3 0
-5992 -5996 -9144 -1 -2 3 0
-5993 -5995 -9144 -2 -1 3 0
-5993 -5996 -9144 -2 3 0
-5999 -6002 -9145 -2 1 0
-5999 -6003 -9145 -2 -3 1 0
-6000 -6002 -9145 -3 -2 1 0
-6000 -6003 -9145 -3 1 0
-5998 -6001 -9146 -1 2 0
-5998 -6003 -9146 -1 -3 2 0
-6000 -6001 -9146 -3 -1 2 0
-6000 -6003 -9146 -3 2 0
-5998 -6001 -9147 -1 3 0
-5998 -6002 -9147 -1 -2 3 0
-5999 -6001 -9147 -2 -1 3 0
-5999 -6002 -9147 -2 3 0
-6005 -6008 -9148 -2 1 0
-6005 -6009 -9148 -2 -3 1 0
-6006 -6008 -9148 -3 -2 1 0
-6006 -6009 -9148 -3 1 0
-6004 -6007 -9149 -1 2 0
-6004 -6009 -9149 -1 -3 2 0
-6006 -6007 -9149 -3 -1 2 0
-6006 -6009 -9149 -3 2 0
-6004 -6007 -9150 -1 3 0
-6004 -6008 -9150 -1 -2 3 0
-6005 -6007 -9150 -2 -1 3 0
-6005 -6008 -9150 -2 3 0
-6011 -6014 -9151 -2 1 0
-6011 -6015 -9151 -2 -3 1 0
-6012 -6014 -9151 -3 -2 1 0
-6012 -6015 -9151 -3 1 0
-6010 -6013 -9152 -1 2 0
-6010 -6015 -9152 -1 -3 2 0
-6012 -6013 -9152 -3 -1 2 0
-6012 -6015 -9152 -3 2 0
-6010 -6013 -9153 -1 3 0
-6010 -6014 -9153 -1 -2 3 0
-6011 -6013 -9153 -2 -1 3 0
-6011 -6014 -9153 -2 3 0
-6017 -6020 -9154 -2 1 0
-6017 -6021 -9154 -2 -3 1 0
-6018 -6020 -9154 -3 -2 1 0
-6018 -6021 -9154 -3 1 0
-6016 -6019 -9155 -1 2 0
-6016 -6021 -9155 -1 -3 2 0
-6018 -6019 -9155 -3 -1 2 0
-6018 -6021 -9155 -3 2 0
-6016 -6019 -9156 -1 3 0
-6016 -6020 -9156 -1 -2 3 0
-6017 -6019 -9156 -2 -1 3 0
-6017 -6020 -9156 -2 3 0
-6023 -6026 -9157 -2 1 0
-6023 -6027 -9157 -2 -3 1 0
-6024 -6026 -9157 -3 -2 1 0
-6024 -6027 -9157 -3 1 0
-6022 -6025 -9158 -1 2 0
-6022 -6027 -9158 -1 -3 2 0
-6024 -6025 -9158 -3 -1 2 0
-6024 -6027 -9158 -3 2 0
-6022 -6025 -9159 -1 3 0
-6022 -6026 -9159 -1 -2 3 0
-6023 -6025 -9159 -2 -1 3 0
-6023 -6026 -9159 -2 3 0
-6029 -6032 -9160 -2 1 0
-6029 -6033 -9160 -2 -3 1 0
-6030 -6032 -9160 -3 -2 1 0
-6030 -6033 -9160 -3 1 0
-6028 -6031 -9161 -1 2 0
-6028 -6033 -9161 -1 -3 2 0
-6030 -6031 -9161 -3 -1 2 0
-6030 -6033 -9161 -3 2 0
-6028 -6031 -9162 -1 3 0
-6028 -6032 -9162 -1 -2 3 0
-6029 -6031 -9162 -2 -1 3 0
-6029 -6032 -9162 -2 3 0
-6035 -6038 -9163 -2 1 0
-6035 -6039 -9163 -2 -3 1 0
-6036 -6038 -9163 -3 -2 1 0
-6036 -6039 -9163 -3 1 0
-6034 -6037 -9164 -1 2 0
-6034 -6039 -9164 -1 -3 2 0
-6036 -6037 -9164 -3 -1 2 0
-6036 -6039 -9164 -3 2 0
-6034 -6037 -9165 -1 3 0
-6034 -6038 -9165 -1 -2 3 0
-6035 -6037 -9165 -2 -1 3 0
-6035 -6038 -9165 -2 3 0
-6041 -6044 -9166 -2 1 0
-6041 -6045 -9166 -2 -3 1 0
-6042 -6044 -9166 -3 -2 1 0
-6042 -6045 -9166 -3 1 0
-6040 -6043 -9167 -1 2 0
-6040 -6045 -9167 -1 -3 2 0
-6042 -6043 -9167 -3 -1 2 0
-6042 -6045 -9167 -3 2 0
-6040 -6043 -9168 -1 3 0
-6040 -6044 -9168 -1 -2 3 0
-6041 -6043 -9168 -2 -1 3 0
-6041 -6044 -9168 -2 3 0
-6047 -6050 -9169 -2 1 0
-6047 -6051 -9169 -2 -3 1 0
-6048 -6050 -9169 -3 -2 1 0
-6048 -6051 -9169 -3 1 0
-6046 -6049 -9170 -1 2 0
-6046 -6051 -9170 -1 -3 2 0
-6048 -6049 -9170 -3 -1 2 0
-6048 -6051 -9170 -3 2 0
-6046 -6049 -9171 -1 3 0
-6046 -6050 -9171 -1 -2 3 0
-6047 -6049 -9171 -2 -1 3 0
-6047 -6050 -9171 -2 3 0
-6053 -6056 -9172 -2 1 0
-6053 -6057 -9172 -2 -3 1 0
-6054 -6056 -9172 -3 -2 1 0
-6054 -6057 -9172 -3 1 0
-6052 -6055 -9173 -1 2 0
-6052 -6057 -9173 -1 -3 2 0
-6054 -6055 -9173 -3 -1 2 0
-6054 -6057 -9173 -3 2 0
-6052 -6055 -9174 -1 3 0
-6052 -6056 -9174 -1 -2 3 0
-6053 -6055 -9174 -2 -1 3 0
-6053 -6056 -9174 -2 3 0
-6059 -6062 -9175 -2 1 0
-6059 -6063 -9175 -2 -3 1 0
-6060 -6062 -9175 -3 -2 1 0
-6060 -6063 -9175 -3 1 0
-6058 -6061 -9176 -1 2 0
-6058 -6063 -9176 -1 -3 2 0
-6060 -6061 -9176 -3 -1 2 0
-6060 -6063 -9176 -3 2 0
-6058 -6061 -9177 -1 3 0
-6058 -6062 -9177 -1 -2 3 0
-6059 -6061 -9177 -2 -1 3 0
-6059 -6062 -9177 -2 3 0
-6065 -6068 -9178 -2 1 0
-6065 -6069 -9178 -2 -3 1 0
-6066 -6068 -9178 -3 -2 1 0
-6066 -6069 -9178 -3 1 0
-6064 -6067 -9179 -1 2 0
-6064 -6069 -9179 -1 -3 2 0
-6066 -6067 -9179 -3 -1 2 0
-6066 -6069 -9179 -3 2 0
-6064 -6067 -9180 -1 3 0
-6064 -6068 -9180 -1 -2 3 0
-6065 -6067 -9180 -2 -1 3 0
-6065 -6068 -9180 -2 3 0
-6071 -6074 -9181 -2 1 0
-6071 -6075 -9181 -2 -3 1 0
-6072 -6074 -9181 -3 -2 1 0
-6072 -6075 -9181 -3 1 0
-6070 -6073 -9182 -1 2 0
-6070 -6075 -9182 -1 -3 2 0
-6072 -6073 -9182 -3 -1 2 0
-6072 -6075 -9182 -3 2 0
-6070 -6073 -9183 -1 3 0
-6070 -6074 -9183 -1 -2 3 0
-6071 -6073 -9183 -2 -1 3 0
-6071 -6074 -9183 -2 3 0
-6077 -6080 -9184 -2 1 0
-6077 -6081 -9184 -2 -3 1 0
-6078 -6080 -9184 -3 -2 1 0
-6078 -6081 -9184 -3 1 0
-6076 -6079 -9185 -1 2 0
-6076 -6081 -9185 -1 -3 2 0
-6078 -6079 -9185 -3 -1 2 0
-6078 -6081 -9185 -3 2 0
-6076 -6079 -9186 -1 3 0
-6076 -6080 -9186 -1 -2 3 0
-6077 -6079 -9186 -2 -1 3 0
-6077 -6080 -9186 -2 3 0
-6083 -6086 -9187 -2 1 0
-6083 -6087 -9187 -2 -3 1 0
-6084 -6086 -9187 -3 -2 1 0
-6084 -6087 -9187 -3 1 0
-6082 -6085 -9188 -1 2 0
-6082 -6087 -9188 -1 -3 2 0
-6084 -6085 -9188 -3 -1 2 0
-6084 -6087 -9188 -3 2 0
-6082 -6085 -9189 -1 3 0
-6082 -6086 -9189 -1 -2 3 0
-6083 -6085 -9189 -2 -1 3 0
-6083 -6086 -9189 -2 3 0
-6089 -6092 -9190 -2 1 0
-6089 -6093 -9190 -2 -3 1 0
-6090 -6092 -9190 -3 -2 1 0
-6090 -6093 -9190 -3 1 0
-6088 -6091 -9191 -1 2 0
-6088 -6093 -9191 -1 -3 2 0
-6090 -6091 -9191 -3 -1 2 0
-6090 -6093 -9191 -3 2 0
-6088 -6091 -9192 -1 3 0
-6088 -6092 -9192 -1 -2 3 0
-6089 -6091 -9192 -2 -1 3 0
-6089 -6092 -9192 -2 3 0
-6095 -6098 -9193 -2 1 0
-6095 -6099 -9193 -2 -3 1 0
-6096 -6098 -9193 -3 -2 1 0
-6096 -6099 -9193 -3 1 0
-6094 -6097 -9194 -1 2 0
-6094 -6099 -9194 -1 -3 2 0
-6096 -6097 -9194 -3 -1 2 0
-6096 -6099 -9194 -3 2 0
-6094 -6097 -9195 -1 3 0
-6094 -6098 -9195 -1 -2 3 0
-6095 -6097 -9195 -2 -1 3 0
-6095 -6098 -9195 -2 3 0
-6101 -6104 -9196 -2 1 0
-6101 -6105 -9196 -2 -3 1 0
-6102 -6104 -9196 -3 -2 1 0
-6102 -6105 -9196 -3 1 0
-6100 -6103 -9197 -1 2 0
-6100 -6105 -9197 -1 -3 2 0
-6102 -6103 -9197 -3 -1 2 0
-6102 -6105 -9197 -3 2 0
-6100 -6103 -9198 -1 3 0
-6100 -6104 -9198 -1 -2 3 0
-6101 -6103 -9198 -2 -1 3 0
-6101 -6104 -9198 -2 3 0
-6107 -6110 -9199 -2 1 0
-6107 -6111 -9199 -2 -3 1 0
-6108 -6110 -9199 -3 -2 1 0
-6108 -6111 -9199 -3 1 0
-6106 -6109 -9200 -1 2 0
-6106 -6111 -9200 -1 -3 2 0
-6108 -6109 -9200 -3 -1 2 0
-6108 -6111 -9200 -3 2 0
-6106 -6109 -9201 -1 3 0
-6106 -6110 -9201 -1 -2 3 0
-6107 -6109 -9201 -2 -1 3 0
-6107 -6110 -9201 -2 3 0
-6113 -6116 -9202 -2 1 0
-6113 -6117 -9202 -2 -3 1 0
-6114 -6116 -9202 -3 -2 1 0
-6114 -6117 -9202 -3 1 0
-6112 -6115 -9203 -1 2 0
-6112 -6117 -9203 -1 -3 2 0
-6114 -6115 -9203 -3 -1 2 0
-6114 -6117 -9203 -3 2 0
-6112 -6115 -9204 -1 3 0
-6112 -6116 -9204 -1 -2 3 0
-6113 -6115 -9204 -2 -1 3 0
-6113 -6116 -9204 -2 3 0
-6119 -6122 -9205 -2 1 0
-6119 -6123 -9205 -2 -3 1 0
-6120 -6122 -9205 -3 -2 1 0
-6120 -6123 -9205 -3 1 0
-6118 -6121 -9206 -1 2 0
-6118 -6123 -9206 -1 -3 2 0
-6120 -6121 -9206 -3 -1 2 0
-6120 -6123 -9206 -3 2 0
-6118 -6121 -9207 -1 3 0
-6118 -6122 -9207 -1 -2 3 0
-6119 -6121 -9207 -2 -1 3 0
-6119 -6122 -9207 -2 3 0
-6125 -6128 -9208 -2 1 0
-6125 -6129 -9208 -2 -3 1 0
-6126 -6128 -9208 -3 -2 1 0
-6126 -6129 -9208 -3 1 0
-6124 -6127 -9209 -1 2 0
-6124 -6129 -9209 -1 -3 2 0
-6126 -6127 -9209 -3 -1 2 0
-6126 -6129 -9209 -3 2 0
-6124 -6127 -9210 -1 3 0
-6124 -6128 -9210 -1 -2 3 0
-6125 -6127 -9210 -2 -1 3 0
-6125 -6128 -9210 -2 3 0
-6131 -6134 -9211 -2 1 0
-6131 -6135 -9211 -2 -3 1 0
-6132 -6134 -9211 -3 -2 1 0
-6132 -6135 -9211 -3 1 0
-6130 -6133 -9212 -1 2 0
-6130 -6135 -9212 -1 -3 2 0
-6132 -6133 -9212 -3 -1 2 0
-6132 -6135 -9212 -3 2 0
-6130 -6133 -9213 -1 3 0
-6130 -6134 -9213 -1 -2 3 0
-6131 -6133 -9213 -2 -1 3 0
-6131 -6134 -9213 -2 3 0
-6137 -6140 -9214 -2 1 0
-6137 -6141 -9214 -2 -3 1 0
-6138 -6140 -9214 -3 -2 1 0
-6138 -6141 -9214 -3 1 0
-6136 -6139 -9215 -1 2 0
-6136 -6141 -9215 -1 -3 2 0
-6138 -6139 -9215 -3 -1 2 0
-6138 -6141 -9215 -3 2 0
-6136 -6139 -9216 -1 3 0
-6136 -6140 -9216 -1 -2 3 0
-6137 -6139 -9216 -2 -1 3 0
-6137 -6140 -9216 -2 3 0
-6143 -6146 -9217 -2 1 0
-6143 -6147 -9217 -2 -3 1 0
-6144 -6146 -9217 -3 -2 1 0
-6144 -6147 -9217 -3 1 0
-6142 -6145 -9218 -1 2 0
-6142 -6147 -9218 -1 -3 2 0
-6144 -6145 -9218 -3 -1 2 0
-6144 -6147 -9218 -3 2 0
-6142 -6145 -9219 -1 3 0
-6142 -6146 -9219 -1 -2 3 0
-6143 -6145 -9219 -2 -1 3 0
-6143 -6146 -9219 -2 3 0
-6149 -6152 -9220 -2 1 0
-6149 -6153 -9220 -2 -3 1 0
-6150 -6152 -9220 -3 -2 1 0
-6150 -6153 -9220 -3 1 0
-6148 -6151 -9221 -1 2 0
-6148 -6153 -9221 -1 -3 2 0
-6150 -6151 -9221 -3 -1 2 0
-6150 -6153 -9221 -3 2 0
-6148 -6151 -9222 -1 3 0
-6148 -6152 -9222 -1 -2 3 0
-6149 -6151 -9222 -2 -1 3 0
-6149 -6152 -9222 -2 3 0
-6155 -6158 -9223 -2 1 0
-6155 -6159 -9223 -2 -3 1 0
-6156 -6158 -9223 -3 -2 1 0
-6156 -6159 -9223 -3 1 0
-6154 -6157 -9224 -1 2 0
-6154 -6159 -9224 -1 -3 2 0
-6156 -6157 -9224 -3 -1 2 0
-6156 -6159 -9224 -3 2 0
-6154 -6157 -9225 -1 3 0
-6154 -6158 -9225 -1 -2 3 0
-6155 -6157 -9225 -2 -1 3 0
-6155 -6158 -9225 -2 3 0
-6161 -6164 -9226 -2 1 0
-6161 -6165 -9226 -2 -3 1 0
-6162 -6164 -9226 -3 -2 1 0
-6162 -6165 -9226 -3 1 0
-6160 -6163 -9227 -1 2 0
-6160 -6165 -9227 -1 -3 2 0
-6162 -6163 -9227 -3 -1 2 0
-6162 -6165 -9227 -3 2 0
-6160 -6163 -9228 -1 3 0
-6160 -6164 -9228 -1 -2 3 0
-6161 -6163 -9228 -2 -1 3 0
-6161 -6164 -9228 -2 3 0
-6167 -6170 -9229 -2 1 0
-6167 -6171 -9229 -2 -3 1 0
-6168 -6170 -9229 -3 -2 1 0
-6168 -6171 -9229 -3 1 0
-6166 -6169 -9230 -1 2 0
-6166 -6171 -9230 -1 -3 2 0
-6168 -6169 -9230 -3 -1 2 0
-6168 -6171 -9230 -3 2 0
-6166 -6169 -9231 -1 3 0
-6166 -6170 -9231 -1 -2 3 0
-6167 -6169 -9231 -2 -1 3 0
-6167 -6170 -9231 -2 3 0
-6173 -6176 -9232 -2 1 0
-6173 -6177 -9232 -2 -3 1 0
-6174 -6176 -9232 -3 -2 1 0
-6174 -6177 -9232 -3 1 0
-6172 -6175 -9233 -1 2 0
-6172 -6177 -9233 -1 -3 2 0
-6174 -6175 -9233 -3 -1 2 0
-6174 -6177 -9233 -3 2 0
-6172 -6175 -9234 -1 3 0
-6172 -6176 -9234 -1 -2 3 0
-6173 -6175 -9234 -2 -1 3 0
-6173 -6176 -9234 -2 3 0
-6179 -6182 -9235 -2 1 0
-6179 -6183 -9235 -2 -3 1 0
-6180 -6182 -9235 -3 -2 1 0
-6180 -6183 -9235 -3 1 0
-6178 -6181 -9236 -1 2 0
-6178 -6183 -9236 -1 -3 2 0
-6180 -6181 -9236 -3 -1 2 0
-6180 -6183 -9236 -3 2 0
-6178 -6181 -9237 -1 3 0
-6178 -6182 -9237 -1 -2 3 0
-6179 -6181 -9237 -2 -1 3 0
-6179 -6182 -9237 -2 3 0
-6185 -6188 -9238 -2 1 0
-6185 -6189 -9238 -2 -3 1 0
-6186 -6188 -9238 -3 -2 1 0
-6186 -6189 -9238 -3 1 0
-6184 -6187 -9239 -1 2 0
-6184 -6189 -9239 -1 -3 2 0
-6186 -6187 -9239 -3 -1 2 0
-6186 -6189 -9239 -3 2 0
-6184 -6187 -9240 -1 3 0
-6184 -6188 -9240 -1 -2 3 0
-6185 -6187 -9240 -2 -1 3 0
-6185 -6188 -9240 -2 3 0
-6191 -6194 -9241 -2 1 0
-6191 -6195 -9241 -2 -3 1 0
-6192 -6194 -9241 -3 -2 1 0
-6192 -6195 -9241 -3 1 0
-6190 -6193 -9242 -1 2 0
-6190 -6195 -9242 -1 -3 2 0
-6192 -6193 -9242 -3 -1 2 0
-6192 -6195 -9242 -3 2 0
-6190 -6193 -9243 -1 3 0
-6190 -6194 -9243 -1 -2 3 0
-6191 -6193 -9243 -2 -1 3 0
-6191 -6194 -9243 -2 3 0
-6197 -6200 -9244 -2 1 0
-6197 -6201 -9244 -2 -3 1 0
-6198 -6200 -9244 -3 -2 1 0
-6198 -6201 -9244 -3 1 0
-6196 -6199 -9245 -1 2 0
-6196 -6201 -9245 -1 -3 2 0
-6198 -6199 -9245 -3 -1 2 0
-6198 -6201 -9245 -3 2 0
-6196 -6199 -9246 -1 3 0
-6196 -6200 -9246 -1 -2 3 0
-6197 -6199 -9246 -2 -1 3 0
-6197 -6200 -9246 -2 3 0
-6203 -6206 -9247 -2 1 0
-6203 -6207 -9247 -2 -3 1 0
-6204 -6206 -9247 -3 -2 1 0
-6204 -6207 -9247 -3 1 0
-6202 -6205 -9248 -1 2 0
-6202 -6207 -9248 -1 -3 2 0
-6204 -6205 -9248 -3 -1 2 0
-6204 -6207 -9248 -3 2 0
-6202 -6205 -9249 -1 3 0
-6202 -6206 -9249 -1 -2 3 0
-6203 -6205 -9249 -2 -1 3 0
-6203 -6206 -9249 -2 3 0
-6209 -6212 -9250 -2 1 0
-6209 -6213 -9250 -2 -3 1 0
-6210 -6212 -9250 -3 -2 1 0
-6210 -6213 -9250 -3 1 0
-6208 -6211 -9251 -1 2 0
-6208 -6213 -9251 -1 -3 2 0
-6210 -6211 -9251 -3 -1 2 0
-6210 -6213 -9251 -3 2 0
-6208 -6211 -9252 -1 3 0
-6208 -6212 -9252 -1 -2 3 0
-6209 -6211 -9252 -2 -1 3 0
-6209 -6212 -9252 -2 3 0
-6215 -6218 -9253 -2 1 0
-6215 -6219 -9253 -2 -3 1 0
-6216 -6218 -9253 -3 -2 1 0
-6216 -6219 -9253 -3 1 0
-6214 -6217 -9254 -1 2 0
-6214 -6219 -9254 -1 -3 2 0
-6216 -6217 -9254 -3 -1 2 0
-6216 -6219 -9254 -3 2 0
-6214 -6217 -9255 -1 3 0
-6214 -6218 -9255 -1 -2 3 0
-6215 -6217 -9255 -2 -1 3 0
-6215 -6218 -9255 -2 3 0
-6221 -6224 -9256 -2 1 0
-6221 -6225 -9256 -2 -3 1 0
-6222 -6224 -9256 -3 -2 1 0
-6222 -6225 -9256 -3 1 0
-6220 -6223 -9257 -1 2 0
-6220 -6225 -9257 -1 -3 2 0
-6222 -6223 -9257 -3 -1 2 0
-6222 -6225 -9257 -3 2 0
-6220 -6223 -9258 -1 3 0
-6220 -6224 -9258 -1 -2 3 0
-6221 -6223 -9258 -2 -1 3 0
-6221 -6224 -9258 -2 3 0
-6227 -6230 -9259 -2 1 0
-6227 -6231 -9259 -2 -3 1 0
-6228 -6230 -9259 -3 -2 1 0
-6228 -6231 -9259 -3 1 0
-6226 -6229 -9260 -1 2 0
-6226 -6231 -9260 -1 -3 2 0
-6228 -6229 -9260 -3 -1 2 0
-6228 -6231 -9260 -3 2 0
-6226 -6229 -9261 -1 3 0
-6226 -6230 -9261 -1 -2 3 0
-6227 -6229 -9261 -2 -1 3 0
-6227 -6230 -9261 -2 3 0
-6233 -6236 -9262 -2 1 0
-6233 -6237 -9262 -2 -3 1 0
-6234 -6236 -9262 -3 -2 1 0
-6234 -6237 -9262 -3 1 0
-6232 -6235 -9263 -1 2 0
-6232 -6237 -9263 -1 -3 2 0
-6234 -6235 -9263 -3 -1 2 0
-6234 -6237 -9263 -3 2 0
-6232 -6235 -9264 -1 3 0
-6232 -6236 -9264 -1 -2 3 0
-6233 -6235 -9264 -2 -1 3 0
-6233 -6236 -9264 -2 3 0
-6239 -6242 -9265 -2 1 0
-6239 -6243 -9265 -2 -3 1 0
-6240 -6242 -9265 -3 -2 1 0
-6240 -6243 -9265 -3 1 0
-6238 -6241 -9266 -1 2 0
-6238 -6243 -9266 -1 -3 2 0
-6240 -6241 -9266 -3 -1 2 0
-6240 -6243 -9266 -3 2 0
-6238 -6241 -9267 -1 3 0
-6238 -6242 -9267 -1 -2 3 0
-6239 -6241 -9267 -2 -1 3 0
-6239 -6242 -9267 -2 3 0
-6245 -6248 -9268 -2 1 0
-6245 -6249 -9268 -2 -3 1 0
-6246 -6248 -9268 -3 -2 1 0
-6246 -6249 -9268 -3 1 0
-6244 -6247 -9269 -1 2 0
-6244 -6249 -9269 -1 -3 2 0
-6246 -6247 -9269 -3 -1 2 0
-6246 -6249 -9269 -3 2 0
-6244 -6247 -9270 -1 3 0
-6244 -6248 -9270 -1 -2 3 0
-6245 -6247 -9270 -2 -1 3 0
-6245 -6248 -9270 -2 3 0
-6251 -6254 -9271 -2 1 0
-6251 -6255 -9271 -2 -3 1 0
-6252 -6254 -9271 -3 -2 1 0
-6252 -6255 -9271 -3 1 0
-6250 -6253 -9272 -1 2 0
-6250 -6255 -9272 -1 -3 2 0
-6252 -6253 -9272 -3 -1 2 0
-6252 -6255 -9272 -3 2 0
-6250 -6253 -9273 -1 3 0
-6250 -6254 -9273 -1 -2 3 0
-6251 -6253 -9273 -2 -1 3 0
-6251 -6254 -9273 -2 3 0
-6257 -6260 -9274 -2 1 0
-6257 -6261 -9274 -2 -3 1 0
-6258 -6260 -9274 -3 -2 1 0
-6258 -6261 -9274 -3 1 0
-6256 -6259 -9275 -1 2 0
-6256 -6261 -9275 -1 -3 2 0
-6258 -6259 -9275 -3 -1 2 0
-6258 -6261 -9275 -3 2 0
-6256 -6259 -9276 -1 3 0
-6256 -6260 -9276 -1 -2 3 0
-6257 -6259 -9276 -2 -1 3 0
-6257 -6260 -9276 -2 3 0
-6263 -6266 -9277 -2 1 0
-6263 -6267 -9277 -2 -3 1 0
-6264 -6266 -9277 -3 -2 1 0
-6264 -6267 -9277 -3 1 0
-6262 -6265 -9278 -1 2 0
-6262 -6267 -9278 -1 -3 2 0
-6264 -6265 -9278 -3 -1 2 0
-6264 -6267 -9278 -3 2 0
-6262 -6265 -9279 -1 3 0
-6262 -6266 -9279 -1 -2 3 0
-6263 -6265 -9279 -2 -1 3 0
-6263 -6266 -9279 -2 3 0
-6269 -6272 -9280 -2 1 0
-6269 -6273 -9280 -2 -3 1 0
-6270 -6272 -9280 -3 -2 1 0
-6270 -6273 -9280 -3 1 0
-6268 -6271 -9281 -1 2 0
-6268 -6273 -9281 -1 -3 2 0
-6270 -6271 -9281 -3 -1 2 0
-6270 -6273 -9281 -3 2 0
-6268 -6271 -9282 -1 3 0
-6268 -6272 -9282 -1 -2 3 0
-6269 -6271 -9282 -2 -1 3 0
-6269 -6272 -9282 -2 3 0
-6275 -6278 -9283 -2 1 0
-6275 -6279 -9283 -2 -3 1 0
-6276 -6278 -9283 -3 -2 1 0
-6276 -6279 -9283 -3 1 0
-6274 -6277 -9284 -1 2 0
-6274 -6279 -9284 -1 -3 2 0
-6276 -6277 -9284 -3 -1 2 0
-6276 -6279 -9284 -3 2 0
-6274 -6277 -9285 -1 3 0
-6274 -6278 -9285 -1 -2 3 0
-6275 -6277 -9285 -2 -1 3 0
-6275 -6278 -9285 -2 3 0
-6281 -6284 -9286 -2 1 0
-6281 -6285 -9286 -2 -3 1 0
-6282 -6284 -9286 -3 -2 1 0
-6282 -6285 -9286 -3 1 0
-6280 -6283 -9287 -1 2 0
-6280 -6285 -9287 -1 -3 2 0
-6282 -6283 -9287 -3 -1 2 0
-6282 -6285 -9287 -3 2 0
-6280 -6283 -9288 -1 3 0
-6280 -6284 -9288 -1 -2 3 0
-6281 -6283 -9288 -2 -1 3 0
-6281 -6284 -9288 -2 3 0
-6287 -6290 -9289 -2 1 0
-6287 -6291 -9289 -2 -3 1 0
-6288 -6290 -9289 -3 -2 1 0
-6288 -6291 -9289 -3 1 0
-6286 -6289 -9290 -1 2 0
-6286 -6291 -9290 -1 -3 2 0
-6288 -6289 -9290 -3 -1 2 0
-6288 -6291 -9290 -3 2 0
-6286 -6289 -9291 -1 3 0
-6286 -6290 -9291 -1 -2 3 0
-6287 -6289 -9291 -2 -1 3 0
-6287 -6290 -9291 -2 3 0
-6293 -6296 -9292 -2 1 0
-6293 -6297 -9292 -2 -3 1 0
-6294 -6296 -9292 -3 -2 1 0
-6294 -6297 -9292 -3 1 0
-6292 -6295 -9293 -1 2 0
-6292 -6297 -9293 -1 -3 2 0
-6294 -6295 -9293 -3 -1 2 0
-6294 -6297 -9293 -3 2 0
-6292 -6295 -9294 -1 3 0
-6292 -6296 -9294 -1 -2 3 0
-6293 -6295 -9294 -2 -1 3 0
-6293 -6296 -9294 -2 3 0
-6299 -6302 -9295 -2 1 0
-6299 -6303 -9295 -2 -3 1 0
-6300 -6302 -9295 -3 -2 1 0
-6300 -6303 -9295 -3 1 0
-6298 -6301 -9296 -1 2 0
-6298 -6303 -9296 -1 -3 2 0
-6300 -6301 -9296 -3 -1 2 0
-6300 -6303 -9296 -3 2 0
-6298 -6301 -9297 -1 3 0
-6298 -6302 -9297 -1 -2 3 0
-6299 -6301 -9297 -2 -1 3 0
-6299 -6302 -9297 -2 3 0
-6305 -6308 -9298 -2 1 0
-6305 -6309 -9298 -2 -3 1 0
-6306 -6308 -9298 -3 -2 1 0
-6306 -6309 -9298 -3 1 0
-6304 -6307 -9299 -1 2 0
-6304 -6309 -9299 -1 -3 2 0
-6306 -6307 -9299 -3 -1 2 0
-6306 -6309 -9299 -3 2 0
-6304 -6307 -9300 -1 3 0
-6304 -6308 -9300 -1 -2 3 0
-6305 -6307 -9300 -2 -1 3 0
-6305 -6308 -9300 -2 3 0
-6311 -6314 -9301 -2 1 0
-6311 -6315 -9301 -2 -3 1 0
-6312 -6314 -9301 -3 -2 1 0
-6312 -6315 -9301 -3 1 0
-6310 -6313 -9302 -1 2 0
-6310 -6315 -9302 -1 -3 2 0
-6312 -6313 -9302 -3 -1 2 0
-6312 -6315 -9302 -3 2 0
-6310 -6313 -9303 -1 3 0
-6310 -6314 -9303 -1 -2 3 0
-6311 -6313 -9303 -2 -1 3 0
-6311 -6314 -9303 -2 3 0
-6317 -6320 -9304 -2 1 0
-6317 -6321 -9304 -2 -3 1 0
-6318 -6320 -9304 -3 -2 1 0
-6318 -6321 -9304 -3 1 0
-6316 -6319 -9305 -1 2 0
-6316 -6321 -9305 -1 -3 2 0
-6318 -6319 -9305 -3 -1 2 0
-6318 -6321 -9305 -3 2 0
-6316 -6319 -9306 -1 3 0
-6316 -6320 -9306 -1 -2 3 0
-6317 -6319 -9306 -2 -1 3 0
-6317 -6320 -9306 -2 3 0
-6323 -6326 -9307 -2 1 0
-6323 -6327 -9307 -2 -3 1 0
-6324 -6326 -9307 -3 -2 1 0
-6324 -6327 -9307 -3 1 0
-6322 -6325 -9308 -1 2 0
-6322 -6327 -9308 -1 -3 2 0
-6324 -6325 -9308 -3 -1 2 0
-6324 -6327 -9308 -3 2 0
-6322 -6325 -9309 -1 3 0
-6322 -6326 -9309 -1 -2 3 0
-6323 -6325 -9309 -2 -1 3 0
-6323 -6326 -9309 -2 3 0
-6329 -6332 -9310 -2 1 0
-6329 -6333 -9310 -2 -3 1 0
-6330 -6332 -9310 -3 -2 1 0
-6330 -6333 -9310 -3 1 0
-6328 -6331 -9311 -1 2 0
-6328 -6333 -9311 -1 -3 2 0
-6330 -6331 -9311 -3 -1 2 0
-6330 -6333 -9311 -3 2 0
-6328 -6331 -9312 -1 3 0
-6328 -6332 -9312 -1 -2 3 0
-6329 -6331 -9312 -2 -1 3 0
-6329 -6332 -9312 -2 3 0
-6335 -6338 -9313 -2 1 0
-6335 -6339 -9313 -2 -3 1 0
-6336 -6338 -9313 -3 -2 1 0
-6336 -6339 -9313 -3 1 0
-6334 -6337 -9314 -1 2 0
-6334 -6339 -9314 -1 -3 2 0
-6336 -6337 -9314 -3 -1 2 0
-6336 -6339 -9314 -3 2 0
-6334 -6337 -9315 -1 3 0
-6334 -6338 -9315 -1 -2 3 0
-6335 -6337 -9315 -2 -1 3 0
-6335 -6338 -9315 -2 3 0
-6341 -6344 -9316 -2 1 0
-6341 -6345 -9316 -2 -3 1 0
-6342 -6344 -9316 -3 -2 1 0
-6342 -6345 -9316 -3 1 0
-6340 -6343 -9317 -1 2 0
-6340 -6345 -9317 -1 -3 2 0
-6342 -6343 -9317 -3 -1 2 0
-6342 -6345 -9317 -3 2 0
-6340 -6343 -9318 -1 3 0
-6340 -6344 -9318 -1 -2 3 0
-6341 -6343 -9318 -2 -1 3 0
-6341 -6344 -9318 -2 3 0
-6347 -6350 -9319 -2 1 0
-6347 -6351 -9319 -2 -3 1 0
-6348 -6350 -9319 -3 -2 1 0
-6348 -6351 -9319 -3 1 0
-6346 -6349 -9320 -1 2 0
-6346 -6351 -9320 -1 -3 2 0
-6348 -6349 -9320 -3 -1 2 0
-6348 -6351 -9320 -3 2 0
-6346 -6349 -9321 -1 3 0
-6346 -6350 -9321 -1 -2 3 0
-6347 -6349 -9321 -2 -1 3 0
-6347 -6350 -9321 -2 3 0
-6353 -6356 -9322 -2 1 0
-6353 -6357 -9322 -2 -3 1 0
-6354 -6356 -9322 -3 -2 1 0
-6354 -6357 -9322 -3 1 0
-6352 -6355 -9323 -1 2 0
-6352 -6357 -9323 -1 -3 2 0
-6354 -6355 -9323 -3 -1 2 0
-6354 -6357 -9323 -3 2 0
-6352 -6355 -9324 -1 3 0
-6352 -6356 -9324 -1 -2 3 0
-6353 -6355 -9324 -2 -1 3 0
-6353 -6356 -9324 -2 3 0
-6359 -6362 -9325 -2 1 0
-6359 -6363 -9325 -2 -3 1 0
-6360 -6362 -9325 -3 -2 1 0
-6360 -6363 -9325 -3 1 0
-6358 -6361 -9326 -1 2 0
-6358 -6363 -9326 -1 -3 2 0
-6360 -6361 -9326 -3 -1 2 0
-6360 -6363 -9326 -3 2 0
-6358 -6361 -9327 -1 3 0
-6358 -6362 -9327 -1 -2 3 0
-6359 -6361 -9327 -2 -1 3 0
-6359 -6362 -9327 -2 3 0
-6365 -6368 -9328 -2 1 0
-6365 -6369 -9328 -2 -3 1 0
-6366 -6368 -9328 -3 -2 1 0
-6366 -6369 -9328 -3 1 0
-6364 -6367 -9329 -1 2 0
-6364 -6369 -9329 -1 -3 2 0
-6366 -6367 -9329 -3 -1 2 0
-6366 -6369 -9329 -3 2 0
-6364 -6367 -9330 -1 3 0
-6364 -6368 -9330 -1 -2 3 0
-6365 -6367 -9330 -2 -1 3 0
-6365 -6368 -9330 -2 3 0
-6371 -6374 -9331 -2 1 0
-6371 -6375 -9331 -2 -3 1 0
-6372 -6374 -9331 -3 -2 1 0
-6372 -6375 -9331 -3 1 0
-6370 -6373 -9332 -1 2 0
-6370 -6375 -9332 -1 -3 2 0
-6372 -6373 -9332 -3 -1 2 0
-6372 -6375 -9332 -3 2 0
-6370 -6373 -9333 -1 3 0
-6370 -6374 -9333 -1 -2 3 0
-6371 -6373 -9333 -2 -1 3 0
-6371 -6374 -9333 -2 3 0
-6377 -6380 -9334 -2 1 0
-6377 -6381 -9334 -2 -3 1 0
-6378 -6380 -9334 -3 -2 1 0
-6378 -6381 -9334 -3 1 0
-6376 -6379 -9335 -1 2 0
-6376 -6381 -9335 -1 -3 2 0
-6378 -6379 -9335 -3 -1 2 0
-6378 -6381 -9335 -3 2 0
-6376 -6379 -9336 -1 3 0
-6376 -6380 -9336 -1 -2 3 0
-6377 -6379 -9336 -2 -1 3 0
-6377 -6380 -9336 -2 3 0
-6383 -6386 -9337 -2 1 0
-6383 -6387 -9337 -2 -3 1 0
-6384 -6386 -9337 -3 -2 1 0
-6384 -6387 -9337 -3 1 0
-6382 -6385 -9338 -1 2 0
-6382 -6387 -9338 -1 -3 2 0
-6384 -6385 -9338 -3 -1 2 0
-6384 -6387 -9338 -3 2 0
-6382 -6385 -9339 -1 3 0
-6382 -6386 -9339 -1 -2 3 0
-6383 -6385 -9339 -2 -1 3 0
-6383 -6386 -9339 -2 3 0
-6389 -6392 -9340 -2 1 0
-6389 -6393 -9340 -2 -3 1 0
-6390 -6392 -9340 -3 -2 1 0
-6390 -6393 -9340 -3 1 0
-6388 -6391 -9341 -1 2 0
-6388 -6393 -9341 -1 -3 2 0
-6390 -6391 -9341 -3 -1 2 0
-6390 -6393 -9341 -3 2 0
-6388 -6391 -9342 -1 3 0
-6388 -6392 -9342 -1 -2 3 0
-6389 -6391 -9342 -2 -1 3 0
-6389 -6392 -9342 -2 3 0
-6395 -6398 -9343 -2 1 0
-6395 -6399 -9343 -2 -3 1 0
-6396 -6398 -9343 -3 -2 1 0
-6396 -6399 -9343 -3 1 0
-6394 -6397 -9344 -1 2 0
-6394 -6399 -9344 -1 -3 2 0
-6396 -6397 -9344 -3 -1 2 0
-6396 -6399 -9344 -3 2 0
-6394 -6397 -9345 -1 3 0
-6394 -6398 -9345 -1 -2 3 0
-6395 -6397 -9345 -2 -1 3 0
-6395 -6398 -9345 -2 3 0
-6401 -6404 -9346 -2 1 0
-6401 -6405 -9346 -2 -3 1 0
-6402 -6404 -9346 -3 -2 1 0
-6402 -6405 -9346 -3 1 0
-6400 -6403 -9347 -1 2 0
-6400 -6405 -9347 -1 -3 2 0
-6402 -6403 -9347 -3 -1 2 0
-6402 -6405 -9347 -3 2 0
-6400 -6403 -9348 -1 3 0
-6400 -6404 -9348 -1 -2 3 0
-6401 -6403 -9348 -2 -1 3 0
-6401 -6404 -9348 -2 3 0
-6407 -6410 -9349 -2 1 0
-6407 -6411 -9349 -2 -3 1 0
-6408 -6410 -9349 -3 -2 1 0
-6408 -6411 -9349 -3 1 0
-6406 -6409 -9350 -1 2 0
-6406 -6411 -9350 -1 -3 2 0
-6408 -6409 -9350 -3 -1 2 0
-6408 -6411 -9350 -3 2 0
-6406 -6409 -9351 -1 3 0
-6406 -6410 -9351 -1 -2 3 0
-6407 -6409 -9351 -2 -1 3 0
-6407 -6410 -9351 -2 3 0
-6413 -6416 -9352 -2 1 0
-6413 -6417 -9352 -2 -3 1 0
-6414 -6416 -9352 -3 -2 1 0
-6414 -6417 -9352 -3 1 0
-6412 -6415 -9353 -1 2 0
-6412 -6417 -9353 -1 -3 2 0
-6414 -6415 -9353 -3 -1 2 0
-6414 -6417 -9353 -3 2 0
-6412 -6415 -9354 -1 3 0
-6412 -6416 -9354 -1 -2 3 0
-6413 -6415 -9354 -2 -1 3 0
-6413 -6416 -9354 -2 3 0
-6419 -6422 -9355 -2 1 0
-6419 -6423 -9355 -2 -3 1 0
-6420 -6422 -9355 -3 -2 1 0
-6420 -6423 -9355 -3 1 0
-6418 -6421 -9356 -1 2 0
-6418 -6423 -9356 -1 -3 2 0
-6420 -6421 -9356 -3 -1 2 0
-6420 -6423 -9356 -3 2 0
-6418 -6421 -9357 -1 3 0
-6418 -6422 -9357 -1 -2 3 0
-6419 -6421 -9357 -2 -1 3 0
-6419 -6422 -9357 -2 3 0
-6425 -6428 -9358 -2 1 0
-6425 -6429 -9358 -2 -3 1 0
-6426 -6428 -9358 -3 -2 1 0
-6426 -6429 -9358 -3 1 0
-6424 -6427 -9359 -1 2 0
-6424 -6429 -9359 -1 -3 2 0
-6426 -6427 -9359 -3 -1 2 0
-6426 -6429 -9359 -3 2 0
-6424 -6427 -9360 -1 3 0
-6424 -6428 -9360 -1 -2 3 0
-6425 -6427 -9360 -2 -1 3 0
-6425 -6428 -9360 -2 3 0
-6431 -6434 -9361 -2 1 0
-6431 -6435 -9361 -2 -3 1 0
-6432 -6434 -9361 -3 -2 1 0
-6432 -6435 -9361 -3 1 0
-6430 -6433 -9362 -1 2 0
-6430 -6435 -9362 -1 -3 2 0
-6432 -6433 -9362 -3 -1 2 0
-6432 -6435 -9362 -3 2 0
-6430 -6433 -9363 -1 3 0
-6430 -6434 -9363 -1 -2 3 0
-6431 -6433 -9363 -2 -1 3 0
-6431 -6434 -9363 -2 3 0
-6437 -6440 -9364 -2 1 0
-6437 -6441 -9364 -2 -3 1 0
-6438 -6440 -9364 -3 -2 1 0
-6438 -6441 -9364 -3 1 0
-6436 -6439 -9365 -1 2 0
-6436 -6441 -9365 -1 -3 2 0
-6438 -6439 -9365 -3 -1 2 0
-6438 -6441 -9365 -3 2 0
-6436 -6439 -9366 -1 3 0
-6436 -6440 -9366 -1 -2 3 0
-6437 -6439 -9366 -2 -1 3 0
-6437 -6440 -9366 -2 3 0
-6443 -6446 -9367 -2 1 0
-6443 -6447 -9367 -2 -3 1 0
-6444 -6446 -9367 -3 -2 1 0
-6444 -6447 -9367 -3 1 0
-6442 -6445 -9368 -1 2 0
-6442 -6447 -9368 -1 -3 2 0
-6444 -6445 -9368 -3 -1 2 0
-6444 -6447 -9368 -3 2 0
-6442 -6445 -9369 -1 3 0
-6442 -6446 -9369 -1 -2 3 0
-6443 -6445 -9369 -2 -1 3 0
-6443 -6446 -9369 -2 3 0
-6449 -6452 -9370 -2 1 0
-6449 -6453 -9370 -2 -3 1 0
-6450 -6452 -9370 -3 -2 1 0
-6450 -6453 -9370 -3 1 0
-6448 -6451 -9371 -1 2 0
-6448 -6453 -9371 -1 -3 2 0
-6450 -6451 -9371 -3 -1 2 0
-6450 -6453 -9371 -3 2 0
-6448 -6451 -9372 -1 3 0
-6448 -6452 -9372 -1 -2 3 0
-6449 -6451 -9372 -2 -1 3 0
-6449 -6452 -9372 -2 3 0
-6455 -6458 -9373 -2 1 0
-6455 -6459 -9373 -2 -3 1 0
-6456 -6458 -9373 -3 -2 1 0
-6456 -6459 -9373 -3 1 0
-6454 -6457 -9374 -1 2 0
-6454 -6459 -9374 -1 -3 2 0
-6456 -6457 -9374 -3 -1 2 0
-6456 -6459 -9374 -3 2 0
-6454 -6457 -9375 -1 3 0
-6454 -6458 -9375 -1 -2 3 0
-6455 -6457 -9375 -2 -1 3 0
-6455 -6458 -9375 -2 3 0
-6461 -6464 -9376 -2 1 0
-6461 -6465 -9376 -2 -3 1 0
-6462 -6464 -9376 -3 -2 1 0
-6462 -6465 -9376 -3 1 0
-6460 -6463 -9377 -1 2 0
-6460 -6465 -9377 -1 -3 2 0
-6462 -6463 -9377 -3 -1 2 0
-6462 -6465 -9377 -3 2 0
-6460 -6463 -9378 -1 3 0
-6460 -6464 -9378 -1 -2 3 0
-6461 -6463 -9378 -2 -1 3 0
-6461 -6464 -9378 -2 3 0
-6467 -6470 -9379 -2 1 0
-6467 -6471 -9379 -2 -3 1 0
-6468 -6470 -9379 -3 -2 1 0
-6468 -6471 -9379 -3 1 0
-6466 -6469 -9380 -1 2 0
-6466 -6471 -9380 -1 -3 2 0
-6468 -6469 -9380 -3 -1 2 0
-6468 -6471 -9380 -3 2 0
-6466 -6469 -9381 -1 3 0
-6466 -6470 -9381 -1 -2 3 0
-6467 -6469 -9381 -2 -1 3 0
-6467 -6470 -9381 -2 3 0
-6473 -6476 -9382 -2 1 0
-6473 -6477 -9382 -2 -3 1 0
-6474 -6476 -9382 -3 -2 1 0
-6474 -6477 -9382 -3 1 0
-6472 -6475 -9383 -1 2 0
-6472 -6477 -9383 -1 -3 2 0
-6474 -6475 -9383 -3 -1 2 0
-6474 -6477 -9383 -3 2 0
-6472 -6475 -9384 -1 3 0
-6472 -6476 -9384 -1 -2 3 0
-6473 -6475 -9384 -2 -1 3 0
-6473 -6476 -9384 -2 3 0
-6479 -6482 -9385 -2 1 0
-6479 -6483 -9385 -2 -3 1 0
-6480 -6482 -9385 -3 -2 1 0
-6480 -6483 -9385 -3 1 0
-6478 -6481 -9386 -1 2 0
-6478 -6483 -9386 -1 -3 2 0
-6480 -6481 -9386 -3 -1 2 0
-6480 -6483 -9386 -3 2 0
-6478 -6481 -9387 -1 3 0
-6478 -6482 -9387 -1 -2 3 0
-6479 -6481 -9387 -2 -1 3 0
-6479 -6482 -9387 -2 3 0
-6485 -6488 -9388 -2 1 0
-6485 -6489 -9388 -2 -3 1 0
-6486 -6488 -9388 -3 -2 1 0
-6486 -6489 -9388 -3 1 0
-6484 -6487 -9389 -1 2 0
-6484 -6489 -9389 -1 -3 2 0
-6486 -6487 -9389 -3 -1 2 0
-6486 -6489 -9389 -3 2 0
-6484 -6487 -9390 -1 3 0
-6484 -6488 -9390 -1 -2 3 0
-6485 -6487 -9390 -2 -1 3 0
-6485 -6488 -9390 -2 3 0
-6491 -6494 -9391 -2 1 0
-6491 -6495 -9391 -2 -3 1 0
-6492 -6494 -9391 -3 -2 1 0
-6492 -6495 -9391 -3 1 0
-6490 -6493 -9392 -1 2 0
-6490 -6495 -9392 -1 -3 2 0
-6492 -6493 -9392 -3 -1 2 0
-6492 -6495 -9392 -3 2 0
-6490 -6493 -9393 -1 3 0
-6490 -6494 -9393 -1 -2 3 0
-6491 -6493 -9393 -2 -1 3 0
-6491 -6494 -9393 -2 3 0
-6497 -6500 -9394 -2 1 0
-6497 -6501 -9394 -2 -3 1 0
-6498 -6500 -9394 -3 -2 1 0
-6498 -6501 -9394 -3 1 0
-6496 -6499 -9395 -1 2 0
-6496 -6501 -9395 -1 -3 2 0
-6498 -6499 -9395 -3 -1 2 0
-6498 -6501 -9395 -3 2 0
-6496 -6499 -9396 -1 3 0
-6496 -6500 -9396 -1 -2 3 0
-6497 -6499 -9396 -2 -1 3 0
-6497 -6500 -9396 -2 3 0
-6503 -6506 -9397 -2 1 0
-6503 -6507 -9397 -2 -3 1 0
-6504 -6506 -9397 -3 -2 1 0
-6504 -6507 -9397 -3 1 0
-6502 -6505 -9398 -1 2 0
-6502 -6507 -9398 -1 -3 2 0
-6504 -6505 -9398 -3 -1 2 0
-6504 -6507 -9398 -3 2 0
-6502 -6505 -9399 -1 3 0
-6502 -6506 -9399 -1 -2 3 0
-6503 -6505 -9399 -2 -1 3 0
-6503 -6506 -9399 -2 3 0
-6509 -6512 -9400 -2 1 0
-6509 -6513 -9400 -2 -3 1 0
-6510 -6512 -9400 -3 -2 1 0
-6510 -6513 -9400 -3 1 0
-6508 -6511 -9401 -1 2 0
-6508 -6513 -9401 -1 -3 2 0
-6510 -6511 -9401 -3 -1 2 0
-6510 -6513 -9401 -3 2 0
-6508 -6511 -9402 -1 3 0
-6508 -6512 -9402 -1 -2 3 0
-6509 -6511 -9402 -2 -1 3 0
-6509 -6512 -9402 -2 3 0
-6515 -6518 -9403 -2 1 0
-6515 -6519 -9403 -2 -3 1 0
-6516 -6518 -9403 -3 -2 1 0
-6516 -6519 -9403 -3 1 0
-6514 -6517 -9404 -1 2 0
-6514 -6519 -9404 -1 -3 2 0
-6516 -6517 -9404 -3 -1 2 0
-6516 -6519 -9404 -3 2 0
-6514 -6517 -9405 -1 3 0
-6514 -6518 -9405 -1 -2 3 0
-6515 -6517 -9405 -2 -1 3 0
-6515 -6518 -9405 -2 3 0
-6521 -6524 -9406 -2 1 0
-6521 -6525 -9406 -2 -3 1 0
-6522 -6524 -9406 -3 -2 1 0
-6522 -6525 -9406 -3 1 0
-6520 -6523 -9407 -1 2 0
-6520 -6525 -9407 -1 -3 2 0
-6522 -6523 -9407 -3 -1 2 0
-6522 -6525 -9407 -3 2 0
-6520 -6523 -9408 -1 3 0
-6520 -6524 -9408 -1 -2 3 0
-6521 -6523 -9408 -2 -1 3 0
-6521 -6524 -9408 -2 3 0
-6527 -6530 -9409 -2 1 0
-6527 -6531 -9409 -2 -3 1 0
-6528 -6530 -9409 -3 -2 1 0
-6528 -6531 -9409 -3 1 0
-6526 -6529 -9410 -1 2 0
-6526 -6531 -9410 -1 -3 2 0
-6528 -6529 -9410 -3 -1 2 0
-6528 -6531 -9410 -3 2 0
-6526 -6529 -9411 -1 3 0
-6526 -6530 -9411 -1 -2 3 0
-6527 -6529 -9411 -2 -1 3 0
-6527 -6530 -9411 -2 3 0
-6533 -6536 -9412 -2 1 0
-6533 -6537 -9412 -2 -3 1 0
-6534 -6536 -9412 -3 -2 1 0
-6534 -6537 -9412 -3 1 0
-6532 -6535 -9413 -1 2 0
-6532 -6537 -9413 -1 -3 2 0
-6534 -6535 -9413 -3 -1 2 0
-6534 -6537 -9413 -3 2 0
-6532 -6535 -9414 -1 3 0
-6532 -6536 -9414 -1 -2 3 0
-6533 -6535 -9414 -2 -1 3 0
-6533 -6536 -9414 -2 3 0
-6539 -6542 -9415 -2 1 0
-6539 -6543 -9415 -2 -3 1 0
-6540 -6542 -9415 -3 -2 1 0
-6540 -6543 -9415 -3 1 0
-6538 -6541 -9416 -1 2 0
-6538 -6543 -9416 -1 -3 2 0
-6540 -6541 -9416 -3 -1 2 0
-6540 -6543 -9416 -3 2 0
-6538 -6541 -9417 -1 3 0
-6538 -6542 -9417 -1 -2 3 0
-6539 -6541 -9417 -2 -1 3 0
-6539 -6542 -9417 -2 3 0
-6545 -6548 -9418 -2 1 0
-6545 -6549 -9418 -2 -3 1 0
-6546 -6548 -9418 -3 -2 1 0
-6546 -6549 -9418 -3 1 0
-6544 -6547 -9419 -1 2 0
-6544 -6549 -9419 -1 -3 2 0
-6546 -6547 -9419 -3 -1 2 0
-6546 -6549 -9419 -3 2 0
-6544 -6547 -9420 -1 3 0
-6544 -6548 -9420 -1 -2 3 0
-6545 -6547 -9420 -2 -1 3 0
-6545 -6548 -9420 -2 3 0
-6551 -6554 -9421 -2 1 0
-6551 -6555 -9421 -2 -3 1 0
-6552 -6554 -9421 -3 -2 1 0
-6552 -6555 -9421 -3 1 0
-6550 -6553 -9422 -1 2 0
-6550 -6555 -9422 -1 -3 2 0
-6552 -6553 -9422 -3 -1 2 0
-6552 -6555 -9422 -3 2 0
-6550 -6553 -9423 -1 3 0
-6550 -6554 -9423 -1 -2 3 0
-6551 -6553 -9423 -2 -1 3 0
-6551 -6554 -9423 -2 3 0
-6557 -6560 -9424 -2 1 0
-6557 -6561 -9424 -2 -3 1 0
-6558 -6560 -9424 -3 -2 1 0
-6558 -6561 -9424 -3 1 0
-6556 -6559 -9425 -1 2 0
-6556 -6561 -9425 -1 -3 2 0
-6558 -6559 -9425 -3 -1 2 0
-6558 -6561 -9425 -3 2 0
-6556 -6559 -9426 -1 3 0
-6556 -6560 -9426 -1 -2 3 0
-6557 -6559 -9426 -2 -1 3 0
-6557 -6560 -9426 -2 3 0
-6563 -6566 -9427 -2 1 0
-6563 -6567 -9427 -2 -3 1 0
-6564 -6566 -9427 -3 -2 1 0
-6564 -6567 -9427 -3 1 0
-6562 -6565 -9428 -1 2 0
-6562 -6567 -9428 -1 -3 2 0
-6564 -6565 -9428 -3 -1 2 0
-6564 -6567 -9428 -3 2 0
-6562 -6565 -9429 -1 3 0
-6562 -6566 -9429 -1 -2 3 0
-6563 -6565 -9429 -2 -1 3 0
-6563 -6566 -9429 -2 3 0
-6569 -6572 -9430 -2 1 0
-6569 -6573 -9430 -2 -3 1 0
-6570 -6572 -9430 -3 -2 1 0
-6570 -6573 -9430 -3 1 0
-6568 -6571 -9431 -1 2 0
-6568 -6573 -9431 -1 -3 2 0
-6570 -6571 -9431 -3 -1 2 0
-6570 -6573 -9431 -3 2 0
-6568 -6571 -9432 -1 3 0
-6568 -6572 -9432 -1 -2 3 0
-6569 -6571 -9432 -2 -1 3 0
-6569 -6572 -9432 -2 3 0
-6575 -6578 -9433 -2 1 0
-6575 -6579 -9433 -2 -3 1 0
-6576 -6578 -9433 -3 -2 1 0
-6576 -6579 -9433 -3 1 0
-6574 -6577 -9434 -1 2 0
-6574 -6579 -9434 -1 -3 2 0
-6576 -6577 -9434 -3 -1 2 0
-6576 -6579 -9434 -3 2 0
-6574 -6577 -9435 -1 3 0
-6574 -6578 -9435 -1 -2 3 0
-6575 -6577 -9435 -2 -1 3 0
-6575 -6578 -9435 -2 3 0
-6581 -6584 -9436 -2 1 0
-6581 -6585 -9436 -2 -3 1 0
-6582 -6584 -9436 -3 -2 1 0
-6582 -6585 -9436 -3 1 0
-6580 -6583 -9437 -1 2 0
-6580 -6585 -9437 -1 -3 2 0
-6582 -6583 -9437 -3 -1 2 0
-6582 -6585 -9437 -3 2 0
-6580 -6583 -9438 -1 3 0
-6580 -6584 -9438 -1 -2 3 0
-6581 -6583 -9438 -2 -1 3 0
-6581 -6584 -9438 -2 3 0
-6587 -6590 -9439 -2 1 0
-6587 -6591 -9439 -2 -3 1 0
-6588 -6590 -9439 -3 -2 1 0
-6588 -6591 -9439 -3 1 0
-6586 -6589 -9440 -1 2 0
-6586 -6591 -9440 -1 -3 2 0
-6588 -6589 -9440 -3 -1 2 0
-6588 -6591 -9440 -3 2 0
-6586 -6589 -9441 -1 3 0
-6586 -6590 -9441 -1 -2 3 0
-6587 -6589 -9441 -2 -1 3 0
-6587 -6590 -9441 -2 3 0
-6593 -6596 -9442 -2 1 0
-6593 -6597 -9442 -2 -3 1 0
-6594 -6596 -9442 -3 -2 1 0
-6594 -6597 -9442 -3 1 0
-6592 -6595 -9443 -1 2 0
-6592 -6597 -9443 -1 -3 2 0
-6594 -6595 -9443 -3 -1 2 0
-6594 -6597 -9443 -3 2 0
-6592 -6595 -9444 -1 3 0
-6592 -6596 -9444 -1 -2 3 0
-6593 -6595 -9444 -2 -1 3 0
-6593 -6596 -9444 -2 3 0
-6599 -6602 -9445 -2 1 0
-6599 -6603 -9445 -2 -3 1 0
-6600 -6602 -9445 -3 -2 1 0
-6600 -6603 -9445 -3 1 0
-6598 -6601 -9446 -1 2 0
-6598 -6603 -9446 -1 -3 2 0
-6600 -6601 -9446 -3 -1 2 0
-6600 -6603 -9446 -3 2 0
-6598 -6601 -9447 -1 3 0
-6598 -6602 -9447 -1 -2 3 0
-6599 -6601 -9447 -2 -1 3 0
-6599 -6602 -9447 -2 3 0
-6605 -6608 -9448 -2 1 0
-6605 -6609 -9448 -2 -3 1 0
-6606 -6608 -9448 -3 -2 1 0
-6606 -6609 -9448 -3 1 0
-6604 -6607 -9449 -1 2 0
-6604 -6609 -9449 -1 -3 2 0
-6606 -6607 -9449 -3 -1 2 0
-6606 -6609 -9449 -3 2 0
-6604 -6607 -9450 -1 3 0
-6604 -6608 -9450 -1 -2 3 0
-6605 -6607 -9450 -2 -1 3 0
-6605 -6608 -9450 -2 3 0
-6611 -6614 -9451 -2 1 0
-6611 -6615 -9451 -2 -3 1 0
-6612 -6614 -9451 -3 -2 1 0
-6612 -6615 -9451 -3 1 0
-6610 -6613 -9452 -1 2 0
-6610 -6615 -9452 -1 -3 2 0
-6612 -6613 -9452 -3 -1 2 0
-6612 -6615 -9452 -3 2 0
-6610 -6613 -9453 -1 3 0
-6610 -6614 -9453 -1 -2 3 0
-6611 -6613 -9453 -2 -1 3 0
-6611 -6614 -9453 -2 3 0
-6617 -6620 -9454 -2 1 0
-6617 -6621 -9454 -2 -3 1 0
-6618 -6620 -9454 -3 -2 1 0
-6618 -6621 -9454 -3 1 0
-6616 -6619 -9455 -1 2 0
-6616 -6621 -9455 -1 -3 2 0
-6618 -6619 -9455 -3 -1 2 0
-6618 -6621 -9455 -3 2 0
-6616 -6619 -9456 -1 3 0
-6616 -6620 -9456 -1 -2 3 0
-6617 -6619 -9456 -2 -1 3 0
-6617 -6620 -9456 -2 3 0
-6623 -6626 -9457 -2 1 0
-6623 -6627 -9457 -2 -3 1 0
-6624 -6626 -9457 -3 -2 1 0
-6624 -6627 -9457 -3 1 0
-6622 -6625 -9458 -1 2 0
-6622 -6627 -9458 -1 -3 2 0
-6624 -6625 -9458 -3 -1 2 0
-6624 -6627 -9458 -3 2 0
-6622 -6625 -9459 -1 3 0
-6622 -6626 -9459 -1 -2 3 0
-6623 -6625 -9459 -2 -1 3 0
-6623 -6626 -9459 -2 3 0
-6629 -6632 -9460 -2 1 0
-6629 -6633 -9460 -2 -3 1 0
-6630 -6632 -9460 -3 -2 1 0
-6630 -6633 -9460 -3 1 0
-6628 -6631 -9461 -1 2 0
-6628 -6633 -9461 -1 -3 2 0
-6630 -6631 -9461 -3 -1 2 0
-6630 -6633 -9461 -3 2 0
-6628 -6631 -9462 -1 3 0
-6628 -6632 -9462 -1 -2 3 0
-6629 -6631 -9462 -2 -1 3 0
-6629 -6632 -9462 -2 3 0
-6635 -6638 -9463 -2 1 0
-6635 -6639 -9463 -2 -3 1 0
-6636 -6638 -9463 -3 -2 1 0
-6636 -6639 -9463 -3 1 0
-6634 -6637 -9464 -1 2 0
-6634 -6639 -9464 -1 -3 2 0
-6636 -6637 -9464 -3 -1 2 0
-6636 -6639 -9464 -3 2 0
-6634 -6637 -9465 -1 3 0
-6634 -6638 -9465 -1 -2 3 0
-6635 -6637 -9465 -2 -1 3 0
-6635 -6638 -9465 -2 3 0
-6641 -6644 -9466 -2 1 0
-6641 -6645 -9466 -2 -3 1 0
-6642 -6644 -9466 -3 -2 1 0
-6642 -6645 -9466 -3 1 0
-6640 -6643 -9467 -1 2 0
-6640 -6645 -9467 -1 -3 2 0
-6642 -6643 -9467 -3 -1 2 0
-6642 -6645 -9467 -3 2 0
-6640 -6643 -9468 -1 3 0
-6640 -6644 -9468 -1 -2 3 0
-6641 -6643 -9468 -2 -1 3 0
-6641 -6644 -9468 -2 3 0
-6647 -6650 -9469 -2 1 0
-6647 -6651 -9469 -2 -3 1 0
-6648 -6650 -9469 -3 -2 1 0
-6648 -6651 -9469 -3 1 0
-6646 -6649 -9470 -1 2 0
-6646 -6651 -9470 -1 -3 2 0
-6648 -6649 -9470 -3 -1 2 0
-6648 -6651 -9470 -3 2 0
-6646 -6649 -9471 -1 3 0
-6646 -6650 -9471 -1 -2 3 0
-6647 -6649 -9471 -2 -1 3 0
-6647 -6650 -9471 -2 3 0
-6653 -6656 -9472 -2 1 0
-6653 -6657 -9472 -2 -3 1 0
-6654 -6656 -9472 -3 -2 1 0
-6654 -6657 -9472 -3 1 0
-6652 -6655 -9473 -1 2 0
-6652 -6657 -9473 -1 -3 2 0
-6654 -6655 -9473 -3 -1 2 0
-6654 -6657 -9473 -3 2 0
-6652 -6655 -9474 -1 3 0
-6652 -6656 -9474 -1 -2 3 0
-6653 -6655 -9474 -2 -1 3 0
-6653 -6656 -9474 -2 3 0
-6659 -6662 -9475 -2 1 0
-6659 -6663 -9475 -2 -3 1 0
-6660 -6662 -9475 -3 -2 1 0
-6660 -6663 -9475 -3 1 0
-6658 -6661 -9476 -1 2 0
-6658 -6663 -9476 -1 -3 2 0
-6660 -6661 -9476 -3 -1 2 0
-6660 -6663 -9476 -3 2 0
-6658 -6661 -9477 -1 3 0
-6658 -6662 -9477 -1 -2 3 0
-6659 -6661 -9477 -2 -1 3 0
-6659 -6662 -9477 -2 3 0
-6665 -6668 -9478 -2 1 0
-6665 -6669 -9478 -2 -3 1 0
-6666 -6668 -9478 -3 -2 1 0
-6666 -6669 -9478 -3 1 0
-6664 -6667 -9479 -1 2 0
-6664 -6669 -9479 -1 -3 2 0
-6666 -6667 -9479 -3 -1 2 0
-6666 -6669 -9479 -3 2 0
-6664 -6667 -9480 -1 3 0
-6664 -6668 -9480 -1 -2 3 0
-6665 -6667 -9480 -2 -1 3 0
-6665 -6668 -9480 -2 3 0
-6671 -6674 -9481 -2 1 0
-6671 -6675 -9481 -2 -3 1 0
-6672 -6674 -9481 -3 -2 1 0
-6672 -6675 -9481 -3 1 0
-6670 -6673 -9482 -1 2 0
-6670 -6675 -9482 -1 -3 2 0
-6672 -6673 -9482 -3 -1 2 0
-6672 -6675 -9482 -3 2 0
-6670 -6673 -9483 -1 3 0
-6670 -6674 -9483 -1 -2 3 0
-6671 -6673 -9483 -2 -1 3 0
-6671 -6674 -9483 -2 3 0
-6677 -6680 -9484 -2 1 0
-6677 -6681 -9484 -2 -3 1 0
-6678 -6680 -9484 -3 -2 1 0
-6678 -6681 -9484 -3 1 0
-6676 -6679 -9485 -1 2 0
-6676 -6681 -9485 -1 -3 2 0
-6678 -6679 -9485 -3 -1 2 0
-6678 -6681 -9485 -3 2 0
-6676 -6679 -9486 -1 3 0
-6676 -6680 -9486 -1 -2 3 0
-6677 -6679 -9486 -2 -1 3 0
-6677 -6680 -9486 -2 3 0
-6683 -6686 -9487 -2 1 0
-6683 -6687 -9487 -2 -3 1 0
-6684 -6686 -9487 -3 -2 1 0
-6684 -6687 -9487 -3 1 0
-6682 -6685 -9488 -1 2 0
-6682 -6687 -9488 -1 -3 2 0
-6684 -6685 -9488 -3 -1 2 0
-6684 -6687 -9488 -3 2 0
-6682 -6685 -9489 -1 3 0
-6682 -6686 -9489 -1 -2 3 0
-6683 -6685 -9489 -2 -1 3 0
-6683 -6686 -9489 -2 3 0
-6689 -6692 -9490 -2 1 0
-6689 -6693 -9490 -2 -3 1 0
-6690 -6692 -9490 -3 -2 1 0
-6690 -6693 -9490 -3 1 0
-6688 -6691 -9491 -1 2 0
-6688 -6693 -9491 -1 -3 2 0
-6690 -6691 -9491 -3 -1 2 0
-6690 -6693 -9491 -3 2 0
-6688 -6691 -9492 -1 3 0
-6688 -6692 -9492 -1 -2 3 0
-6689 -6691 -9492 -2 -1 3 0
-6689 -6692 -9492 -2 3 0
-6695 -6698 -9493 -2 1 0
-6695 -6699 -9493 -2 -3 1 0
-6696 -6698 -9493 -3 -2 1 0
-6696 -6699 -9493 -3 1 0
-6694 -6697 -9494 -1 2 0
-6694 -6699 -9494 -1 -3 2 0
-6696 -6697 -9494 -3 -1 2 0
-6696 -6699 -9494 -3 2 0
-6694 -6697 -9495 -1 3 0
-6694 -6698 -9495 -1 -2 3 0
-6695 -6697 -9495 -2 -1 3 0
-6695 -6698 -9495 -2 3 0
-6701 -6704 -9496 -2 1 0
-6701 -6705 -9496 -2 -3 1 0
-6702 -6704 -9496 -3 -2 1 0
-6702 -6705 -9496 -3 1 0
-6700 -6703 -9497 -1 2 0
-6700 -6705 -9497 -1 -3 2 0
-6702 -6703 -9497 -3 -1 2 0
-6702 -6705 -9497 -3 2 0
-6700 -6703 -9498 -1 3 0
-6700 -6704 -9498 -1 -2 3 0
-6701 -6703 -9498 -2 -1 3 0
-6701 -6704 -9498 -2 3 0
-6707 -6710 -9499 -2 1 0
-6707 -6711 -9499 -2 -3 1 0
-6708 -6710 -9499 -3 -2 1 0
-6708 -6711 -9499 -3 1 0
-6706 -6709 -9500 -1 2 0
-6706 -6711 -9500 -1 -3 2 0
-6708 -6709 -9500 -3 -1 2 0
-6708 -6711 -9500 -3 2 0
-6706 -6709 -9501 -1 3 0
-6706 -6710 -9501 -1 -2 3 0
-6707 -6709 -9501 -2 -1 3 0
-6707 -6710 -9501 -2 3 0
-6713 -6716 -9502 -2 1 0
-6713 -6717 -9502 -2 -3 1 0
-6714 -6716 -9502 -3 -2 1 0
-6714 -6717 -9502 -3 1 0
-6712 -6715 -9503 -1 2 0
-6712 -6717 -9503 -1 -3 2 0
-6714 -6715 -9503 -3 -1 2 0
-6714 -6717 -9503 -3 2 0
-6712 -6715 -9504 -1 3 0
-6712 -6716 -9504 -1 -2 3 0
-6713 -6715 -9504 -2 -1 3 0
-6713 -6716 -9504 -2 3 0
-6719 -6722 -9505 -2 1 0
-6719 -6723 -9505 -2 -3 1 0
-6720 -6722 -9505 -3 -2 1 0
-6720 -6723 -9505 -3 1 0
-6718 -6721 -9506 -1 2 0
-6718 -6723 -9506 -1 -3 2 0
-6720 -6721 -9506 -3 -1 2 0
-6720 -6723 -9506 -3 2 0
-6718 -6721 -9507 -1 3 0
-6718 -6722 -9507 -1 -2 3 0
-6719 -6721 -9507 -2 -1 3 0
-6719 -6722 -9507 -2 3 0
-6725 -6728 -9508 -2 1 0
-6725 -6729 -9508 -2 -3 1 0
-6726 -6728 -9508 -3 -2 1 0
-6726 -6729 -9508 -3 1 0
-6724 -6727 -9509 -1 2 0
-6724 -6729 -9509 -1 -3 2 0
-6726 -6727 -9509 -3 -1 2 0
-6726 -6729 -9509 -3 2 0
-6724 -6727 -9510 -1 3 0
-6724 -6728 -9510 -1 -2 3 0
-6725 -6727 -9510 -2 -1 3 0
-6725 -6728 -9510 -2 3 0
-6731 -6734 -9511 -2 1 0
-6731 -6735 -9511 -2 -3 1 0
-6732 -6734 -9511 -3 -2 1 0
-6732 -6735 -9511 -3 1 0
-6730 -6733 -9512 -1 2 0
-6730 -6735 -9512 -1 -3 2 0
-6732 -6733 -9512 -3 -1 2 0
-6732 -6735 -9512 -3 2 0
-6730 -6733 -9513 -1 3 0
-6730 -6734 -9513 -1 -2 3 0
-6731 -6733 -9513 -2 -1 3 0
-6731 -6734 -9513 -2 3 0
-6737 -6740 -9514 -2 1 0
-6737 -6741 -9514 -2 -3 1 0
-6738 -6740 -9514 -3 -2 1 0
-6738 -6741 -9514 -3 1 0
-6736 -6739 -9515 -1 2 0
-6736 -6741 -9515 -1 -3 2 0
-6738 -6739 -9515 -3 -1 2 0
-6738 -6741 -9515 -3 2 0
-6736 -6739 -9516 -1 3 0
-6736 -6740 -9516 -1 -2 3 0
-6737 -6739 -9516 -2 -1 3 0
-6737 -6740 -9516 -2 3 0
-6743 -6746 -9517 -2 1 0
-6743 -6747 -9517 -2 -3 1 0
-6744 -6746 -9517 -3 -2 1 0
-6744 -6747 -9517 -3 1 0
-6742 -6745 -9518 -1 2 0
-6742 -6747 -9518 -1 -3 2 0
-6744 -6745 -9518 -3 -1 2 0
-6744 -6747 -9518 -3 2 0
-6742 -6745 -9519 -1 3 0
-6742 -6746 -9519 -1 -2 3 0
-6743 -6745 -9519 -2 -1 3 0
-6743 -6746 -9519 -2 3 0
-6749 -6752 -9520 -2 1 0
-6749 -6753 -9520 -2 -3 1 0
-6750 -6752 -9520 -3 -2 1 0
-6750 -6753 -9520 -3 1 0
-6748 -6751 -9521 -1 2 0
-6748 -6753 -9521 -1 -3 2 0
-6750 -6751 -9521 -3 -1 2 0
-6750 -6753 -9521 -3 2 0
-6748 -6751 -9522 -1 3 0
-6748 -6752 -9522 -1 -2 3 0
-6749 -6751 -9522 -2 -1 3 0
-6749 -6752 -9522 -2 3 0
-6755 -6758 -9523 -2 1 0
-6755 -6759 -9523 -2 -3 1 0
-6756 -6758 -9523 -3 -2 1 0
-6756 -6759 -9523 -3 1 0
-6754 -6757 -9524 -1 2 0
-6754 -6759 -9524 -1 -3 2 0
-6756 -6757 -9524 -3 -1 2 0
-6756 -6759 -9524 -3 2 0
-6754 -6757 -9525 -1 3 0
-6754 -6758 -9525 -1 -2 3 0
-6755 -6757 -9525 -2 -1 3 0
-6755 -6758 -9525 -2 3 0
-6761 -6764 -9526 -2 1 0
-6761 -6765 -9526 -2 -3 1 0
-6762 -6764 -9526 -3 -2 1 0
-6762 -6765 -9526 -3 1 0
-6760 -6763 -9527 -1 2 0
-6760 -6765 -9527 -1 -3 2 0
-6762 -6763 -9527 -3 -1 2 0
-6762 -6765 -9527 -3 2 0
-6760 -6763 -9528 -1 3 0
-6760 -6764 -9528 -1 -2 3 0
-6761 -6763 -9528 -2 -1 3 0
-6761 -6764 -9528 -2 3 0
-6767 -6770 -9529 -2 1 0
-6767 -6771 -9529 -2 -3 1 0
-6768 -6770 -9529 -3 -2 1 0
-6768 -6771 -9529 -3 1 0
-6766 -6769 -9530 -1 2 0
-6766 -6771 -9530 -1 -3 2 0
-6768 -6769 -9530 -3 -1 2 0
-6768 -6771 -9530 -3 2 0
-6766 -6769 -9531 -1 3 0
-6766 -6770 -9531 -1 -2 3 0
-6767 -6769 -9531 -2 -1 3 0
-6767 -6770 -9531 -2 3 0
-6773 -6776 -9532 -2 1 0
-6773 -6777 -9532 -2 -3 1 0
-6774 -6776 -9532 -3 -2 1 0
-6774 -6777 -9532 -3 1 0
-6772 -6775 -9533 -1 2 0
-6772 -6777 -9533 -1 -3 2 0
-6774 -6775 -9533 -3 -1 2 0
-6774 -6777 -9533 -3 2 0
-6772 -6775 -9534 -1 3 0
-6772 -6776 -9534 -1 -2 3 0
-6773 -6775 -9534 -2 -1 3 0
-6773 -6776 -9534 -2 3 0
-6779 -6782 -9535 -2 1 0
-6779 -6783 -9535 -2 -3 1 0
-6780 -6782 -9535 -3 -2 1 0
-6780 -6783 -9535 -3 1 0
-6778 -6781 -9536 -1 2 0
-6778 -6783 -9536 -1 -3 2 0
-6780 -6781 -9536 -3 -1 2 0
-6780 -6783 -9536 -3 2 0
-6778 -6781 -9537 -1 3 0
-6778 -6782 -9537 -1 -2 3 0
-6779 -6781 -9537 -2 -1 3 0
-6779 -6782 -9537 -2 3 0
-6785 -6788 -9538 -2 1 0
-6785 -6789 -9538 -2 -3 1 0
-6786 -6788 -9538 -3 -2 1 0
-6786 -6789 -9538 -3 1 0
-6784 -6787 -9539 -1 2 0
-6784 -6789 -9539 -1 -3 2 0
-6786 -6787 -9539 -3 -1 2 0
-6786 -6789 -9539 -3 2 0
-6784 -6787 -9540 -1 3 0
-6784 -6788 -9540 -1 -2 3 0
-6785 -6787 -9540 -2 -1 3 0
-6785 -6788 -9540 -2 3 0
-6791 -6794 -9541 -2 1 0
-6791 -6795 -9541 -2 -3 1 0
-6792 -6794 -9541 -3 -2 1 0
-6792 -6795 -9541 -3 1 0
-6790 -6793 -9542 -1 2 0
-6790 -6795 -9542 -1 -3 2 0
-6792 -6793 -9542 -3 -1 2 0
-6792 -6795 -9542 -3 2 0
-6790 -6793 -9543 -1 3 0
-6790 -6794 -9543 -1 -2 3 0
-6791 -6793 -9543 -2 -1 3 0
-6791 -6794 -9543 -2 3 0
-6797 -6800 -9544 -2 1 0
-6797 -6801 -9544 -2 -3 1 0
-6798 -6800 -9544 -3 -2 1 0
-6798 -6801 -9544 -3 1 0
-6796 -6799 -9545 -1 2 0
-6796 -6801 -9545 -1 -3 2 0
-6798 -6799 -9545 -3 -1 2 0
-6798 -6801 -9545 -3 2 0
-6796 -6799 -9546 -1 3 0
-6796 -6800 -9546 -1 -2 3 0
-6797 -6799 -9546 -2 -1 3 0
-6797 -6800 -9546 -2 3 0
-6803 -6806 -9547 -2 1 0
-6803 -6807 -9547 -2 -3 1 0
-6804 -6806 -9547 -3 -2 1 0
-6804 -6807 -9547 -3 1 0
-6802 -6805 -9548 -1 2 0
-6802 -6807 -9548 -1 -3 2 0
-6804 -6805 -9548 -3 -1 2 0
-6804 -6807 -9548 -3 2 0
-6802 -6805 -9549 -1 3 0
-6802 -6806 -9549 -1 -2 3 0
-6803 -6805 -9549 -2 -1 3 0
-6803 -6806 -9549 -2 3 0
-6809 -6812 -9550 -2 1 0
-6809 -6813 -9550 -2 -3 1 0
-6810 -6812 -9550 -3 -2 1 0
-6810 -6813 -9550 -3 1 0
-6808 -6811 -9551 -1 2 0
-6808 -6813 -9551 -1 -3 2 0
-6810 -6811 -9551 -3 -1 2 0
-6810 -6813 -9551 -3 2 0
-6808 -6811 -9552 -1 3 0
-6808 -6812 -9552 -1 -2 3 0
-6809 -6811 -9552 -2 -1 3 0
-6809 -6812 -9552 -2 3 0
-6815 -6818 -9553 -2 1 0
-6815 -6819 -9553 -2 -3 1 0
-6816 -6818 -9553 -3 -2 1 0
-6816 -6819 -9553 -3 1 0
-6814 -6817 -9554 -1 2 0
-6814 -6819 -9554 -1 -3 2 0
-6816 -6817 -9554 -3 -1 2 0
-6816 -6819 -9554 -3 2 0
-6814 -6817 -9555 -1 3 0
-6814 -6818 -9555 -1 -2 3 0
-6815 -6817 -9555 -2 -1 3 0
-6815 -6818 -9555 -2 3 0
-6821 -6824 -9556 -2 1 0
-6821 -6825 -9556 -2 -3 1 0
-6822 -6824 -9556 -3 -2 1 0
-6822 -6825 -9556 -3 1 0
-6820 -6823 -9557 -1 2 0
-6820 -6825 -9557 -1 -3 2 0
-6822 -6823 -9557 -3 -1 2 0
-6822 -6825 -9557 -3 2 0
-6820 -6823 -9558 -1 3 0
-6820 -6824 -9558 -1 -2 3 0
-6821 -6823 -9558 -2 -1 3 0
-6821 -6824 -9558 -2 3 0
-6827 -6830 -9559 -2 1 0
-6827 -6831 -9559 -2 -3 1 0
-6828 -6830 -9559 -3 -2 1 0
-6828 -6831 -9559 -3 1 0
-6826 -6829 -9560 -1 2 0
-6826 -6831 -9560 -1 -3 2 0
-6828 -6829 -9560 -3 -1 2 0
-6828 -6831 -9560 -3 2 0
-6826 -6829 -9561 -1 3 0
-6826 -6830 -9561 -1 -2 3 0
-6827 -6829 -9561 -2 -1 3 0
-6827 -6830 -9561 -2 3 0
-6833 -6836 -9562 -2 1 0
-6833 -6837 -9562 -2 -3 1 0
-6834 -6836 -9562 -3 -2 1 0
-6834 -6837 -9562 -3 1 0
-6832 -6835 -9563 -1 2 0
-6832 -6837 -9563 -1 -3 2 0
-6834 -6835 -9563 -3 -1 2 0
-6834 -6837 -9563 -3 2 0
-6832 -6835 -9564 -1 3 0
-6832 -6836 -9564 -1 -2 3 0
-6833 -6835 -9564 -2 -1 3 0
-6833 -6836 -9564 -2 3 0
-6839 -6842 -9565 -2 1 0
-6839 -6843 -9565 -2 -3 1 0
-6840 -6842 -9565 -3 -2 1 0
-6840 -6843 -9565 -3 1 0
-6838 -6841 -9566 -1 2 0
-6838 -6843 -9566 -1 -3 2 0
-6840 -6841 -9566 -3 -1 2 0
-6840 -6843 -9566 -3 2 0
-6838 -6841 -9567 -1 3 0
-6838 -6842 -9567 -1 -2 3 0
-6839 -6841 -9567 -2 -1 3 0
-6839 -6842 -9567 -2 3 0
-6845 -6848 -9568 -2 1 0
-6845 -6849 -9568 -2 -3 1 0
-6846 -6848 -9568 -3 -2 1 0
-6846 -6849 -9568 -3 1 0
-6844 -6847 -9569 -1 2 0
-6844 -6849 -9569 -1 -3 2 0
-6846 -6847 -9569 -3 -1 2 0
-6846 -6849 -9569 -3 2 0
-6844 -6847 -9570 -1 3 0
-6844 -6848 -9570 -1 -2 3 0
-6845 -6847 -9570 -2 -1 3 0
-6845 -6848 -9570 -2 3 0
-6851 -6854 -9571 -2 1 0
-6851 -6855 -9571 -2 -3 1 0
-6852 -6854 -9571 -3 -2 1 0
-6852 -6855 -9571 -3 1 0
-6850 -6853 -9572 -1 2 0
-6850 -6855 -9572 -1 -3 2 0
-6852 -6853 -9572 -3 -1 2 0
-6852 -6855 -9572 -3 2 0
-6850 -6853 -9573 -1 3 0
-6850 -6854 -9573 -1 -2 3 0
-6851 -6853 -9573 -2 -1 3 0
-6851 -6854 -9573 -2 3 0
-6857 -6860 -9574 -2 1 0
-6857 -6861 -9574 -2 -3 1 0
-6858 -6860 -9574 -3 -2 1 0
-6858 -6861 -9574 -3 1 0
-6856 -6859 -9575 -1 2 0
-6856 -6861 -9575 -1 -3 2 0
-6858 -6859 -9575 -3 -1 2 0
-6858 -6861 -9575 -3 2 0
-6856 -6859 -9576 -1 3 0
-6856 -6860 -9576 -1 -2 3 0
-6857 -6859 -9576 -2 -1 3 0
-6857 -6860 -9576 -2 3 0
-6863 -6866 -9577 -2 1 0
-6863 -6867 -9577 -2 -3 1 0
-6864 -6866 -9577 -3 -2 1 0
-6864 -6867 -9577 -3 1 0
-6862 -6865 -9578 -1 2 0
-6862 -6867 -9578 -1 -3 2 0
-6864 -6865 -9578 -3 -1 2 0
-6864 -6867 -9578 -3 2 0
-6862 -6865 -9579 -1 3 0
-6862 -6866 -9579 -1 -2 3 0
-6863 -6865 -9579 -2 -1 3 0
-6863 -6866 -9579 -2 3 0
-6869 -6872 -9580 -2 1 0
-6869 -6873 -9580 -2 -3 1 0
-6870 -6872 -9580 -3 -2 1 0
-6870 -6873 -9580 -3 1 0
-6868 -6871 -9581 -1 2 0
-6868 -6873 -9581 -1 -3 2 0
-6870 -6871 -9581 -3 -1 2 0
-6870 -6873 -9581 -3 2 0
-6868 -6871 -9582 -1 3 0
-6868 -6872 -9582 -1 -2 3 0
-6869 -6871 -9582 -2 -1 3 0
-6869 -6872 -9582 -2 3 0
-6875 -6878 -9583 -2 1 0
-6875 -6879 -9583 -2 -3 1 0
-6876 -6878 -9583 -3 -2 1 0
-6876 -6879 -9583 -3 1 0
-6874 -6877 -9584 -1 2 0
-6874 -6879 -9584 -1 -3 2 0
-6876 -6877 -9584 -3 -1 2 0
-6876 -6879 -9584 -3 2 0
-6874 -6877 -9585 -1 3 0
-6874 -6878 -9585 -1 -2 3 0
-6875 -6877 -9585 -2 -1 3 0
-6875 -6878 -9585 -2 3 0
-6881 -6884 -9586 -2 1 0
-6881 -6885 -9586 -2 -3 1 0
-6882 -6884 -9586 -3 -2 1 0
-6882 -6885 -9586 -3 1 0
-6880 -6883 -9587 -1 2 0
-6880 -6885 -9587 -1 -3 2 0
-6882 -6883 -9587 -3 -1 2 0
-6882 -6885 -9587 -3 2 0
-6880 -6883 -9588 -1 3 0
-6880 -6884 -9588 -1 -2 3 0
-6881 -6883 -9588 -2 -1 3 0
-6881 -6884 -9588 -2 3 0
-6887 -6890 -9589 -2 1 0
-6887 -6891 -9589 -2 -3 1 0
-6888 -6890 -9589 -3 -2 1 0
-6888 -6891 -9589 -3 1 0
-6886 -6889 -9590 -1 2 0
-6886 -6891 -9590 -1 -3 2 0
-6888 -6889 -9590 -3 -1 2 0
-6888 -6891 -9590 -3 2 0
-6886 -6889 -9591 -1 3 0
-6886 -6890 -9591 -1 -2 3 0
-6887 -6889 -9591 -2 -1 3 0
-6887 -6890 -9591 -2 3 0
-6893 -6896 -9592 -2 1 0
-6893 -6897 -9592 -2 -3 1 0
-6894 -6896 -9592 -3 -2 1 0
-6894 -6897 -9592 -3 1 0
-6892 -6895 -9593 -1 2 0
-6892 -6897 -9593 -1 -3 2 0
-6894 -6895 -9593 -3 -1 2 0
-6894 -6897 -9593 -3 2 0
-6892 -6895 -9594 -1 3 0
-6892 -6896 -9594 -1 -2 3 0
-6893 -6895 -9594 -2 -1 3 0
-6893 -6896 -9594 -2 3 0
-6899 -6902 -9595 -2 1 0
-6899 -6903 -9595 -2 -3 1 0
-6900 -6902 -9595 -3 -2 1 0
-6900 -6903 -9595 -3 1 0
-6898 -6901 -9596 -1 2 0
-6898 -6903 -9596 -1 -3 2 0
-6900 -6901 -9596 -3 -1 2 0
-6900 -6903 -9596 -3 2 0
-6898 -6901 -9597 -1 3 0
-6898 -6902 -9597 -1 -2 3 0
-6899 -6901 -9597 -2 -1 3 0
-6899 -6902 -9597 -2 3 0
-6905 -6908 -9598 -2 1 0
-6905 -6909 -9598 -2 -3 1 0
-6906 -6908 -9598 -3 -2 1 0
-6906 -6909 -9598 -3 1 0
-6904 -6907 -9599 -1 2 0
-6904 -6909 -9599 -1 -3 2 0
-6906 -6907 -9599 -3 -1 2 0
-6906 -6909 -9599 -3 2 0
-6904 -6907 -9600 -1 3 0
-6904 -6908 -9600 -1 -2 3 0
-6905 -6907 -9600 -2 -1 3 0
-6905 -6908 -9600 -2 3 0
-6911 -6914 -9601 -2 1 0
-6911 -6915 -9601 -2 -3 1 0
-6912 -6914 -9601 -3 -2 1 0
-6912 -6915 -9601 -3 1 0
-6910 -6913 -9602 -1 2 0
-6910 -6915 -9602 -1 -3 2 0
-6912 -6913 -9602 -3 -1 2 0
-6912 -6915 -9602 -3 2 0
-6910 -6913 -9603 -1 3 0
-6910 -6914 -9603 -1 -2 3 0
-6911 -6913 -9603 -2 -1 3 0
-6911 -6914 -9603 -2 3 0
-6917 -6920 -9604 -2 1 0
-6917 -6921 -9604 -2 -3 1 0
-6918 -6920 -9604 -3 -2 1 0
-6918 -6921 -9604 -3 1 0
-6916 -6919 -9605 -1 2 0
-6916 -6921 -9605 -1 -3 2 0
-6918 -6919 -9605 -3 -1 2 0
-6918 -6921 -9605 -3 2 0
-6916 -6919 -9606 -1 3 0
-6916 -6920 -9606 -1 -2 3 0
-6917 -6919 -9606 -2 -1 3 0
-6917 -6920 -9606 -2 3 0
-6923 -6926 -9607 -2 1 0
-6923 -6927 -9607 -2 -3 1 0
-6924 -6926 -9607 -3 -2 1 0
-6924 -6927 -9607 -3 1 0
-6922 -6925 -9608 -1 2 0
-6922 -6927 -9608 -1 -3 2 0
-6924 -6925 -9608 -3 -1 2 0
-6924 -6927 -9608 -3 2 0
-6922 -6925 -9609 -1 3 0
-6922 -6926 -9609 -1 -2 3 0
-6923 -6925 -9609 -2 -1 3 0
-6923 -6926 -9609 -2 3 0
-6929 -6932 -9610 -2 1 0
-6929 -6933 -9610 -2 -3 1 0
-6930 -6932 -9610 -3 -2 1 0
-6930 -6933 -9610 -3 1 0
-6928 -6931 -9611 -1 2 0
-6928 -6933 -9611 -1 -3 2 0
-6930 -6931 -9611 -3 -1 2 0
-6930 -6933 -9611 -3 2 0
-6928 -6931 -9612 -1 3 0
-6928 -6932 -9612 -1 -2 3 0
-6929 -6931 -9612 -2 -1 3 0
-6929 -6932 -9612 -2 3 0
-6935 -6938 -9613 -2 1 0
-6935 -6939 -9613 -2 -3 1 0
-6936 -6938 -9613 -3 -2 1 0
-6936 -6939 -9613 -3 1 0
-6934 -6937 -9614 -1 2 0
-6934 -6939 -9614 -1 -3 2 0
-6936 -6937 -9614 -3 -1 2 0
-6936 -6939 -9614 -3 2 0
-6934 -6937 -9615 -1 3 0
-6934 -6938 -9615 -1 -2 3 0
-6935 -6937 -9615 -2 -1 3 0
-6935 -6938 -9615 -2 3 0
-6941 -6944 -9616 -2 1 0
-6941 -6945 -9616 -2 -3 1 0
-6942 -6944 -9616 -3 -2 1 0
-6942 -6945 -9616 -3 1 0
-6940 -6943 -9617 -1 2 0
-6940 -6945 -9617 -1 -3 2 0
-6942 -6943 -9617 -3 -1 2 0
-6942 -6945 -9617 -3 2 0
-6940 -6943 -9618 -1 3 0
-6940 -6944 -9618 -1 -2 3 0
-6941 -6943 -9618 -2 -1 3 0
-6941 -6944 -9618 -2 3 0
-6947 -6950 -9619 -2 1 0
-6947 -6951 -9619 -2 -3 1 0
-6948 -6950 -9619 -3 -2 1 0
-6948 -6951 -9619 -3 1 0
-6946 -6949 -9620 -1 2 0
-6946 -6951 -9620 -1 -3 2 0
-6948 -6949 -9620 -3 -1 2 0
-6948 -6951 -9620 -3 2 0
-6946 -6949 -9621 -1 3 0
-6946 -6950 -9621 -1 -2 3 0
-6947 -6949 -9621 -2 -1 3 0
-6947 -6950 -9621 -2 3 0
-6953 -6956 -9622 -2 1 0
-6953 -6957 -9622 -2 -3 1 0
-6954 -6956 -9622 -3 -2 1 0
-6954 -6957 -9622 -3 1 0
-6952 -6955 -9623 -1 2 0
-6952 -6957 -9623 -1 -3 2 0
-6954 -6955 -9623 -3 -1 2 0
-6954 -6957 -9623 -3 2 0
-6952 -6955 -9624 -1 3 0
-6952 -6956 -9624 -1 -2 3 0
-6953 -6955 -9624 -2 -1 3 0
-6953 -6956 -9624 -2 3 0
-6959 -6962 -9625 -2 1 0
-6959 -6963 -9625 -2 -3 1 0
-6960 -6962 -9625 -3 -2 1 0
-6960 -6963 -9625 -3 1 0
-6958 -6961 -9626 -1 2 0
-6958 -6963 -9626 -1 -3 2 0
-6960 -6961 -9626 -3 -1 2 0
-6960 -6963 -9626 -3 2 0
-6958 -6961 -9627 -1 3 0
-6958 -6962 -9627 -1 -2 3 0
-6959 -6961 -9627 -2 -1 3 0
-6959 -6962 -9627 -2 3 0
-6965 -6968 -9628 -2 1 0
-6965 -6969 -9628 -2 -3 1 0
-6966 -6968 -9628 -3 -2 1 0
-6966 -6969 -9628 -3 1 0
-6964 -6967 -9629 -1 2 0
-6964 -6969 -9629 -1 -3 2 0
-6966 -6967 -9629 -3 -1 2 0
-6966 -6969 -9629 -3 2 0
-6964 -6967 -9630 -1 3 0
-6964 -6968 -9630 -1 -2 3 0
-6965 -6967 -9630 -2 -1 3 0
-6965 -6968 -9630 -2 3 0
-6971 -6974 -9631 -2 1 0
-6971 -6975 -9631 -2 -3 1 0
-6972 -6974 -9631 -3 -2 1 0
-6972 -6975 -9631 -3 1 0
-6970 -6973 -9632 -1 2 0
-6970 -6975 -9632 -1 -3 2 0
-6972 -6973 -9632 -3 -1 2 0
-6972 -6975 -9632 -3 2 0
-6970 -6973 -9633 -1 3 0
-6970 -6974 -9633 -1 -2 3 0
-6971 -6973 -9633 -2 -1 3 0
-6971 -6974 -9633 -2 3 0
-6977 -6980 -9634 -2 1 0
-6977 -6981 -9634 -2 -3 1 0
-6978 -6980 -9634 -3 -2 1 0
-6978 -6981 -9634 -3 1 0
-6976 -6979 -9635 -1 2 0
-6976 -6981 -9635 -1 -3 2 0
-6978 -6979 -9635 -3 -1 2 0
-6978 -6981 -9635 -3 2 0
-6976 -6979 -9636 -1 3 0
-6976 -6980 -9636 -1 -2 3 0
-6977 -6979 -9636 -2 -1 3 0
-6977 -6980 -9636 -2 3 0
-6983 -6986 -9637 -2 1 0
-6983 -6987 -9637 -2 -3 1 0
-6984 -6986 -9637 -3 -2 1 0
-6984 -6987 -9637 -3 1 0
-6982 -6985 -9638 -1 2 0
-6982 -6987 -9638 -1 -3 2 0
-6984 -6985 -9638 -3 -1 2 0
-6984 -6987 -9638 -3 2 0
-6982 -6985 -9639 -1 3 0
-6982 -6986 -9639 -1 -2 3 0
-6983 -6985 -9639 -2 -1 3 0
-6983 -6986 -9639 -2 3 0
-6989 -6992 -9640 -2 1 0
-6989 -6993 -9640 -2 -3 1 0
-6990 -6992 -9640 -3 -2 1 0
-6990 -6993 -9640 -3 1 0
-6988 -6991 -9641 -1 2 0
-6988 -6993 -9641 -1 -3 2 0
-6990 -6991 -9641 -3 -1 2 0
-6990 -6993 -9641 -3 2 0
-6988 -6991 -9642 -1 3 0
-6988 -6992 -9642 -1 -2 3 0
-6989 -6991 -9642 -2 -1 3 0
-6989 -6992 -9642 -2 3 0
-6995 -6998 -9643 -2 1 0
-6995 -6999 -9643 -2 -3 1 0
-6996 -6998 -9643 -3 -2 1 0
-6996 -6999 -9643 -3 1 0
-6994 -6997 -9644 -1 2 0
-6994 -6999 -9644 -1 -3 2 0
-6996 -6997 -9644 -3 -1 2 0
-6996 -6999 -9644 -3 2 0
-6994 -6997 -9645 -1 3 0
-6994 -6998 -9645 -1 -2 3 0
-6995 -6997 -9645 -2 -1 3 0
-6995 -6998 -9645 -2 3 0
-7001 -7004 -9646 -2 1 0
-7001 -7005 -9646 -2 -3 1 0
-7002 -7004 -9646 -3 -2 1 0
-7002 -7005 -9646 -3 1 0
-7000 -7003 -9647 -1 2 0
-7000 -7005 -9647 -1 -3 2 0
-7002 -7003 -9647 -3 -1 2 0
-7002 -7005 -9647 -3 2 0
-7000 -7003 -9648 -1 3 0
-7000 -7004 -9648 -1 -2 3 0
-7001 -7003 -9648 -2 -1 3 0
-7001 -7004 -9648 -2 3 0
-7007 -7010 -9649 -2 1 0
-7007 -7011 -9649 -2 -3 1 0
-7008 -7010 -9649 -3 -2 1 0
-7008 -7011 -9649 -3 1 0
-7006 -7009 -9650 -1 2 0
-7006 -7011 -9650 -1 -3 2 0
-7008 -7009 -9650 -3 -1 2 0
-7008 -7011 -9650 -3 2 0
-7006 -7009 -9651 -1 3 0
-7006 -7010 -9651 -1 -2 3 0
-7007 -7009 -9651 -2 -1 3 0
-7007 -7010 -9651 -2 3 0
-7013 -7016 -9652 -2 1 0
-7013 -7017 -9652 -2 -3 1 0
-7014 -7016 -9652 -3 -2 1 0
-7014 -7017 -9652 -3 1 0
-7012 -7015 -9653 -1 2 0
-7012 -7017 -9653 -1 -3 2 0
-7014 -7015 -9653 -3 -1 2 0
-7014 -7017 -9653 -3 2 0
-7012 -7015 -9654 -1 3 0
-7012 -7016 -9654 -1 -2 3 0
-7013 -7015 -9654 -2 -1 3 0
-7013 -7016 -9654 -2 3 0
-7019 -7022 -9655 -2 1 0
-7019 -7023 -9655 -2 -3 1 0
-7020 -7022 -9655 -3 -2 1 0
-7020 -7023 -9655 -3 1 0
-7018 -7021 -9656 -1 2 0
-7018 -7023 -9656 -1 -3 2 0
-7020 -7021 -9656 -3 -1 2 0
-7020 -7023 -9656 -3 2 0
-7018 -7021 -9657 -1 3 0
-7018 -7022 -9657 -1 -2 3 0
-7019 -7021 -9657 -2 -1 3 0
-7019 -7022 -9657 -2 3 0
-7025 -7028 -9658 -2 1 0
-7025 -7029 -9658 -2 -3 1 0
-7026 -7028 -9658 -3 -2 1 0
-7026 -7029 -9658 -3 1 0
-7024 -7027 -9659 -1 2 0
-7024 -7029 -9659 -1 -3 2 0
-7026 -7027 -9659 -3 -1 2 0
-7026 -7029 -9659 -3 2 0
-7024 -7027 -9660 -1 3 0
-7024 -7028 -9660 -1 -2 3 0
-7025 -7027 -9660 -2 -1 3 0
-7025 -7028 -9660 -2 3 0
-7031 -7034 -9661 -2 1 0
-7031 -7035 -9661 -2 -3 1 0
-7032 -7034 -9661 -3 -2 1 0
-7032 -7035 -9661 -3 1 0
-7030 -7033 -9662 -1 2 0
-7030 -7035 -9662 -1 -3 2 0
-7032 -7033 -9662 -3 -1 2 0
-7032 -7035 -9662 -3 2 0
-7030 -7033 -9663 -1 3 0
-7030 -7034 -9663 -1 -2 3 0
-7031 -7033 -9663 -2 -1 3 0
-7031 -7034 -9663 -2 3 0
-7037 -7040 -9664 -2 1 0
-7037 -7041 -9664 -2 -3 1 0
-7038 -7040 -9664 -3 -2 1 0
-7038 -7041 -9664 -3 1 0
-7036 -7039 -9665 -1 2 0
-7036 -7041 -9665 -1 -3 2 0
-7038 -7039 -9665 -3 -1 2 0
-7038 -7041 -9665 -3 2 0
-7036 -7039 -9666 -1 3 0
-7036 -7040 -9666 -1 -2 3 0
-7037 -7039 -9666 -2 -1 3 0
-7037 -7040 -9666 -2 3 0
-7043 -7046 -9667 -2 1 0
-7043 -7047 -9667 -2 -3 1 0
-7044 -7046 -9667 -3 -2 1 0
-7044 -7047 -9667 -3 1 0
-7042 -7045 -9668 -1 2 0
-7042 -7047 -9668 -1 -3 2 0
-7044 -7045 -9668 -3 -1 2 0
-7044 -7047 -9668 -3 2 0
-7042 -7045 -9669 -1 3 0
-7042 -7046 -9669 -1 -2 3 0
-7043 -7045 -9669 -2 -1 3 0
-7043 -7046 -9669 -2 3 0
-7049 -7052 -9670 -2 1 0
-7049 -7053 -9670 -2 -3 1 0
-7050 -7052 -9670 -3 -2 1 0
-7050 -7053 -9670 -3 1 0
-7048 -7051 -9671 -1 2 0
-7048 -7053 -9671 -1 -3 2 0
-7050 -7051 -9671 -3 -1 2 0
-7050 -7053 -9671 -3 2 0
-7048 -7051 -9672 -1 3 0
-7048 -7052 -9672 -1 -2 3 0
-7049 -7051 -9672 -2 -1 3 0
-7049 -7052 -9672 -2 3 0
-7055 -7058 -9673 -2 1 0
-7055 -7059 -9673 -2 -3 1 0
-7056 -7058 -9673 -3 -2 1 0
-7056 -7059 -9673 -3 1 0
-7054 -7057 -9674 -1 2 0
-7054 -7059 -9674 -1 -3 2 0
-7056 -7057 -9674 -3 -1 2 0
-7056 -7059 -9674 -3 2 0
-7054 -7057 -9675 -1 3 0
-7054 -7058 -9675 -1 -2 3 0
-7055 -7057 -9675 -2 -1 3 0
-7055 -7058 -9675 -2 3 0
-7061 -7064 -9676 -2 1 0
-7061 -7065 -9676 -2 -3 1 0
-7062 -7064 -9676 -3 -2 1 0
-7062 -7065 -9676 -3 1 0
-7060 -7063 -9677 -1 2 0
-7060 -7065 -9677 -1 -3 2 0
-7062 -7063 -9677 -3 -1 2 0
-7062 -7065 -9677 -3 2 0
-7060 -7063 -9678 -1 3 0
-7060 -7064 -9678 -1 -2 3 0
-7061 -7063 -9678 -2 -1 3 0
-7061 -7064 -9678 -2 3 0
-7067 -7070 -9679 -2 1 0
-7067 -7071 -9679 -2 -3 1 0
-7068 -7070 -9679 -3 -2 1 0
-7068 -7071 -9679 -3 1 0
-7066 -7069 -9680 -1 2 0
-7066 -7071 -9680 -1 -3 2 0
-7068 -7069 -9680 -3 -1 2 0
-7068 -7071 -9680 -3 2 0
-7066 -7069 -9681 -1 3 0
-7066 -7070 -9681 -1 -2 3 0
-7067 -7069 -9681 -2 -1 3 0
-7067 -7070 -9681 -2 3 0
-7073 -7076 -9682 -2 1 0
-7073 -7077 -9682 -2 -3 1 0
-7074 -7076 -9682 -3 -2 1 0
-7074 -7077 -9682 -3 1 0
-7072 -7075 -9683 -1 2 0
-7072 -7077 -9683 -1 -3 2 0
-7074 -7075 -9683 -3 -1 2 0
-7074 -7077 -9683 -3 2 0
-7072 -7075 -9684 -1 3 0
-7072 -7076 -9684 -1 -2 3 0
-7073 -7075 -9684 -2 -1 3 0
-7073 -7076 -9684 -2 3 0
-7079 -7082 -9685 -2 1 0
-7079 -7083 -9685 -2 -3 1 0
-7080 -7082 -9685 -3 -2 1 0
-7080 -7083 -9685 -3 1 0
-7078 -7081 -9686 -1 2 0
-7078 -7083 -9686 -1 -3 2 0
-7080 -7081 -9686 -3 -1 2 0
-7080 -7083 -9686 -3 2 0
-7078 -7081 -9687 -1 3 0
-7078 -7082 -9687 -1 -2 3 0
-7079 -7081 -9687 -2 -1 3 0
-7079 -7082 -9687 -2 3 0
-7085 -7088 -9688 -2 1 0
-7085 -7089 -9688 -2 -3 1 0
-7086 -7088 -9688 -3 -2 1 0
-7086 -7089 -9688 -3 1 0
-7084 -7087 -9689 -1 2 0
-7084 -7089 -9689 -1 -3 2 0
-7086 -7087 -9689 -3 -1 2 0
-7086 -7089 -9689 -3 2 0
-7084 -7087 -9690 -1 3 0
-7084 -7088 -9690 -1 -2 3 0
-7085 -7087 -9690 -2 -1 3 0
-7085 -7088 -9690 -2 3 0
-7091 -7094 -9691 -2 1 0
-7091 -7095 -9691 -2 -3 1 0
-7092 -7094 -9691 -3 -2 1 0
-7092 -7095 -9691 -3 1 0
-7090 -7093 -9692 -1 2 0
-7090 -7095 -9692 -1 -3 2 0
-7092 -7093 -9692 -3 -1 2 0
-7092 -7095 -9692 -3 2 0
-7090 -7093 -9693 -1 3 0
-7090 -7094 -9693 -1 -2 3 0
-7091 -7093 -9693 -2 -1 3 0
-7091 -7094 -9693 -2 3 0
-7097 -7100 -9694 -2 1 0
-7097 -7101 -9694 -2 -3 1 0
-7098 -7100 -9694 -3 -2 1 0
-7098 -7101 -9694 -3 1 0
-7096 -7099 -9695 -1 2 0
-7096 -7101 -9695 -1 -3 2 0
-7098 -7099 -9695 -3 -1 2 0
-7098 -7101 -9695 -3 2 0
-7096 -7099 -9696 -1 3 0
-7096 -7100 -9696 -1 -2 3 0
-7097 -7099 -9696 -2 -1 3 0
-7097 -7100 -9696 -2 3 0
-7103 -7106 -9697 -2 1 0
-7103 -7107 -9697 -2 -3 1 0
-7104 -7106 -9697 -3 -2 1 0
-7104 -7107 -9697 -3 1 0
-7102 -7105 -9698 -1 2 0
-7102 -7107 -9698 -1 -3 2 0
-7104 -7105 -9698 -3 -1 2 0
-7104 -7107 -9698 -3 2 0
-7102 -7105 -9699 -1 3 0
-7102 -7106 -9699 -1 -2 3 0
-7103 -7105 -9699 -2 -1 3 0
-7103 -7106 -9699 -2 3 0
-7109 -7112 -9700 -2 1 0
-7109 -7113 -9700 -2 -3 1 0
-7110 -7112 -9700 -3 -2 1 0
-7110 -7113 -9700 -3 1 0
-7108 -7111 -9701 -1 2 0
-7108 -7113 -9701 -1 -3 2 0
-7110 -7111 -9701 -3 -1 2 0
-7110 -7113 -9701 -3 2 0
-7108 -7111 -9702 -1 3 0
-7108 -7112 -9702 -1 -2 3 0
-7109 -7111 -9702 -2 -1 3 0
-7109 -7112 -9702 -2 3 0
-7115 -7118 -9703 -2 1 0
-7115 -7119 -9703 -2 -3 1 0
-7116 -7118 -9703 -3 -2 1 0
-7116 -7119 -9703 -3 1 0
-7114 -7117 -9704 -1 2 0
-7114 -7119 -9704 -1 -3 2 0
-7116 -7117 -9704 -3 -1 2 0
-7116 -7119 -9704 -3 2 0
-7114 -7117 -9705 -1 3 0
-7114 -7118 -9705 -1 -2 3 0
-7115 -7117 -9705 -2 -1 3 0
-7115 -7118 -9705 -2 3 0
-7121 -7124 -9706 -2 1 0
-7121 -7125 -9706 -2 -3 1 0
-7122 -7124 -9706 -3 -2 1 0
-7122 -7125 -9706 -3 1 0
-7120 -7123 -9707 -1 2 0
-7120 -7125 -9707 -1 -3 2 0
-7122 -7123 -9707 -3 -1 2 0
-7122 -7125 -9707 -3 2 0
-7120 -7123 -9708 -1 3 0
-7120 -7124 -9708 -1 -2 3 0
-7121 -7123 -9708 -2 -1 3 0
-7121 -7124 -9708 -2 3 0
-7127 -7130 -9709 -2 1 0
-7127 -7131 -9709 -2 -3 1 0
-7128 -7130 -9709 -3 -2 1 0
-7128 -7131 -9709 -3 1 0
-7126 -7129 -9710 -1 2 0
-7126 -7131 -9710 -1 -3 2 0
-7128 -7129 -9710 -3 -1 2 0
-7128 -7131 -9710 -3 2 0
-7126 -7129 -9711 -1 3 0
-7126 -7130 -9711 -1 -2 3 0
-7127 -7129 -9711 -2 -1 3 0
-7127 -7130 -9711 -2 3 0
-7133 -7136 -9712 -2 1 0
-7133 -7137 -9712 -2 -3 1 0
-7134 -7136 -9712 -3 -2 1 0
-7134 -7137 -9712 -3 1 0
-7132 -7135 -9713 -1 2 0
-7132 -7137 -9713 -1 -3 2 0
-7134 -7135 -9713 -3 -1 2 0
-7134 -7137 -9713 -3 2 0
-7132 -7135 -9714 -1 3 0
-7132 -7136 -9714 -1 -2 3 0
-7133 -7135 -9714 -2 -1 3 0
-7133 -7136 -9714 -2 3 0
-7139 -7142 -9715 -2 1 0
-7139 -7143 -9715 -2 -3 1 0
-7140 -7142 -9715 -3 -2 1 0
-7140 -7143 -9715 -3 1 0
-7138 -7141 -9716 -1 2 0
-7138 -7143 -9716 -1 -3 2 0
-7140 -7141 -9716 -3 -1 2 0
-7140 -7143 -9716 -3 2 0
-7138 -7141 -9717 -1 3 0
-7138 -7142 -9717 -1 -2 3 0
-7139 -7141 -9717 -2 -1 3 0
-7139 -7142 -9717 -2 3 0
-7145 -7148 -9718 -2 1 0
-7145 -7149 -9718 -2 -3 1 0
-7146 -7148 -9718 -3 -2 1 0
-7146 -7149 -9718 -3 1 0
-7144 -7147 -9719 -1 2 0
-7144 -7149 -9719 -1 -3 2 0
-7146 -7147 -9719 -3 -1 2 0
-7146 -7149 -9719 -3 2 0
-7144 -7147 -9720 -1 3 0
-7144 -7148 -9720 -1 -2 3 0
-7145 -7147 -9720 -2 -1 3 0
-7145 -7148 -9720 -2 3 0
-7151 -7154 -9721 -2 1 0
-7151 -7155 -9721 -2 -3 1 0
-7152 -7154 -9721 -3 -2 1 0
-7152 -7155 -9721 -3 1 0
-7150 -7153 -9722 -1 2 0
-7150 -7155 -9722 -1 -3 2 0
-7152 -7153 -9722 -3 -1 2 0
-7152 -7155 -9722 -3 2 0
-7150 -7153 -9723 -1 3 0
-7150 -7154 -9723 -1 -2 3 0
-7151 -7153 -9723 -2 -1 3 0
-7151 -7154 -9723 -2 3 0
-7157 -7160 -9724 -2 1 0
-7157 -7161 -9724 -2 -3 1 0
-7158 -7160 -9724 -3 -2 1 0
-7158 -7161 -9724 -3 1 0
-7156 -7159 -9725 -1 2 0
-7156 -7161 -9725 -1 -3 2 0
-7158 -7159 -9725 -3 -1 2 0
-7158 -7161 -9725 -3 2 0
-7156 -7159 -9726 -1 3 0
-7156 -7160 -9726 -1 -2 3 0
-7157 -7159 -9726 -2 -1 3 0
-7157 -7160 -9726 -2 3 0
-7163 -7166 -9727 -2 1 0
-7163 -7167 -9727 -2 -3 1 0
-7164 -7166 -9727 -3 -2 1 0
-7164 -7167 -9727 -3 1 0
-7162 -7165 -9728 -1 2 0
-7162 -7167 -9728 -1 -3 2 0
-7164 -7165 -9728 -3 -1 2 0
-7164 -7167 -9728 -3 2 0
-7162 -7165 -9729 -1 3 0
-7162 -7166 -9729 -1 -2 3 0
-7163 -7165 -9729 -2 -1 3 0
-7163 -7166 -9729 -2 3 0
-7169 -7172 -9730 -2 1 0
-7169 -7173 -9730 -2 -3 1 0
-7170 -7172 -9730 -3 -2 1 0
-7170 -7173 -9730 -3 1 0
-7168 -7171 -9731 -1 2 0
-7168 -7173 -9731 -1 -3 2 0
-7170 -7171 -9731 -3 -1 2 0
-7170 -7173 -9731 -3 2 0
-7168 -7171 -9732 -1 3 0
-7168 -7172 -9732 -1 -2 3 0
-7169 -7171 -9732 -2 -1 3 0
-7169 -7172 -9732 -2 3 0
-7175 -7178 -9733 -2 1 0
-7175 -7179 -9733 -2 -3 1 0
-7176 -7178 -9733 -3 -2 1 0
-7176 -7179 -9733 -3 1 0
-7174 -7177 -9734 -1 2 0
-7174 -7179 -9734 -1 -3 2 0
-7176 -7177 -9734 -3 -1 2 0
-7176 -7179 -9734 -3 2 0
-7174 -7177 -9735 -1 3 0
-7174 -7178 -9735 -1 -2 3 0
-7175 -7177 -9735 -2 -1 3 0
-7175 -7178 -9735 -2 3 0
-7181 -7184 -9736 -2 1 0
-7181 -7185 -9736 -2 -3 1 0
-7182 -7184 -9736 -3 -2 1 0
-7182 -7185 -9736 -3 1 0
-7180 -7183 -9737 -1 2 0
-7180 -7185 -9737 -1 -3 2 0
-7182 -7183 -9737 -3 -1 2 0
-7182 -7185 -9737 -3 2 0
-7180 -7183 -9738 -1 3 0
-7180 -7184 -9738 -1 -2 3 0
-7181 -7183 -9738 -2 -1 3 0
-7181 -7184 -9738 -2 3 0
-7187 -7190 -9739 -2 1 0
-7187 -7191 -9739 -2 -3 1 0
-7188 -7190 -9739 -3 -2 1 0
-7188 -7191 -9739 -3 1 0
-7186 -7189 -9740 -1 2 0
-7186 -7191 -9740 -1 -3 2 0
-7188 -7189 -9740 -3 -1 2 0
-7188 -7191 -9740 -3 2 0
-7186 -7189 -9741 -1 3 0
-7186 -7190 -9741 -1 -2 3 0
-7187 -7189 -9741 -2 -1 3 0
-7187 -7190 -9741 -2 3 0
-7193 -7196 -9742 -2 1 0
-7193 -7197 -9742 -2 -3 1 0
-7194 -7196 -9742 -3 -2 1 0
-7194 -7197 -9742 -3 1 0
-7192 -7195 -9743 -1 2 0
-7192 -7197 -9743 -1 -3 2 0
-7194 -7195 -9743 -3 -1 2 0
-7194 -7197 -9743 -3 2 0
-7192 -7195 -9744 -1 3 0
-7192 -7196 -9744 -1 -2 3 0
-7193 -7195 -9744 -2 -1 3 0
-7193 -7196 -9744 -2 3 0
-7199 -7202 -9745 -2 1 0
-7199 -7203 -9745 -2 -3 1 0
-7200 -7202 -9745 -3 -2 1 0
-7200 -7203 -9745 -3 1 0
-7198 -7201 -9746 -1 2 0
-7198 -7203 -9746 -1 -3 2 0
-7200 -7201 -9746 -3 -1 2 0
-7200 -7203 -9746 -3 2 0
-7198 -7201 -9747 -1 3 0
-7198 -7202 -9747 -1 -2 3 0
-7199 -7201 -9747 -2 -1 3 0
-7199 -7202 -9747 -2 3 0
-7205 -7208 -9748 -2 1 0
-7205 -7209 -9748 -2 -3 1 0
-7206 -7208 -9748 -3 -2 1 0
-7206 -7209 -9748 -3 1 0
-7204 -7207 -9749 -1 2 0
-7204 -7209 -9749 -1 -3 2 0
-7206 -7207 -9749 -3 -1 2 0
-7206 -7209 -9749 -3 2 0
-7204 -7207 -9750 -1 3 0
-7204 -7208 -9750 -1 -2 3 0
-7205 -7207 -9750 -2 -1 3 0
-7205 -7208 -9750 -2 3 0
-7211 -7214 -9751 -2 1 0
-7211 -7215 -9751 -2 -3 1 0
-7212 -7214 -9751 -3 -2 1 0
-7212 -7215 -9751 -3 1 0
-7210 -7213 -9752 -1 2 0
-7210 -7215 -9752 -1 -3 2 0
-7212 -7213 -9752 -3 -1 2 0
-7212 -7215 -9752 -3 2 0
-7210 -7213 -9753 -1 3 0
-7210 -7214 -9753 -1 -2 3 0
-7211 -7213 -9753 -2 -1 3 0
-7211 -7214 -9753 -2 3 0
-7217 -7220 -9754 -2 1 0
-7217 -7221 -9754 -2 -3 1 0
-7218 -7220 -9754 -3 -2 1 0
-7218 -7221 -9754 -3 1 0
-7216 -7219 -9755 -1 2 0
-7216 -7221 -9755 -1 -3 2 0
-7218 -7219 -9755 -3 -1 2 0
-7218 -7221 -9755 -3 2 0
-7216 -7219 -9756 -1 3 0
-7216 -7220 -9756 -1 -2 3 0
-7217 -7219 -9756 -2 -1 3 0
-7217 -7220 -9756 -2 3 0
-7223 -7226 -9757 -2 1 0
-7223 -7227 -9757 -2 -3 1 0
-7224 -7226 -9757 -3 -2 1 0
-7224 -7227 -9757 -3 1 0
-7222 -7225 -9758 -1 2 0
-7222 -7227 -9758 -1 -3 2 0
-7224 -7225 -9758 -3 -1 2 0
-7224 -7227 -9758 -3 2 0
-7222 -7225 -9759 -1 3 0
-7222 -7226 -9759 -1 -2 3 0
-7223 -7225 -9759 -2 -1 3 0
-7223 -7226 -9759 -2 3 0
-7229 -7232 -9760 -2 1 0
-7229 -7233 -9760 -2 -3 1 0
-7230 -7232 -9760 -3 -2 1 0
-7230 -7233 -9760 -3 1 0
-7228 -7231 -9761 -1 2 0
-7228 -7233 -9761 -1 -3 2 0
-7230 -7231 -9761 -3 -1 2 0
-7230 -7233 -9761 -3 2 0
-7228 -7231 -9762 -1 3 0
-7228 -7232 -9762 -1 -2 3 0
-7229 -7231 -9762 -2 -1 3 0
-7229 -7232 -9762 -2 3 0
-7235 -7238 -9763 -2 1 0
-7235 -7239 -9763 -2 -3 1 0
-7236 -7238 -9763 -3 -2 1 0
-7236 -7239 -9763 -3 1 0
-7234 -7237 -9764 -1 2 0
-7234 -7239 -9764 -1 -3 2 0
-7236 -7237 -9764 -3 -1 2 0
-7236 -7239 -9764 -3 2 0
-7234 -7237 -9765 -1 3 0
-7234 -7238 -9765 -1 -2 3 0
-7235 -7237 -9765 -2 -1 3 0
-7235 -7238 -9765 -2 3 0
-7241 -7244 -9766 -2 1 0
-7241 -7245 -9766 -2 -3 1 0
-7242 -7244 -9766 -3 -2 1 0
-7242 -7245 -9766 -3 1 0
-7240 -7243 -9767 -1 2 0
-7240 -7245 -9767 -1 -3 2 0
-7242 -7243 -9767 -3 -1 2 0
-7242 -7245 -9767 -3 2 0
-7240 -7243 -9768 -1 3 0
-7240 -7244 -9768 -1 -2 3 0
-7241 -7243 -9768 -2 -1 3 0
-7241 -7244 -9768 -2 3 0
-7247 -7250 -9769 -2 1 0
-7247 -7251 -9769 -2 -3 1 0
-7248 -7250 -9769 -3 -2 1 0
-7248 -7251 -9769 -3 1 0
-7246 -7249 -9770 -1 2 0
-7246 -7251 -9770 -1 -3 2 0
-7248 -7249 -9770 -3 -1 2 0
-7248 -7251 -9770 -3 2 0
-7246 -7249 -9771 -1 3 0
-7246 -7250 -9771 -1 -2 3 0
-7247 -7249 -9771 -2 -1 3 0
-7247 -7250 -9771 -2 3 0
-7253 -7256 -9772 -2 1 0
-7253 -7257 -9772 -2 -3 1 0
-7254 -7256 -9772 -3 -2 1 0
-7254 -7257 -9772 -3 1 0
-7252 -7255 -9773 -1 2 0
-7252 -7257 -9773 -1 -3 2 0
-7254 -7255 -9773 -3 -1 2 0
-7254 -7257 -9773 -3 2 0
-7252 -7255 -9774 -1 3 0
-7252 -7256 -9774 -1 -2 3 0
-7253 -7255 -9774 -2 -1 3 0
-7253 -7256 -9774 -2 3 0
-7259 -7262 -9775 -2 1 0
-7259 -7263 -9775 -2 -3 1 0
-7260 -7262 -9775 -3 -2 1 0
-7260 -7263 -9775 -3 1 0
-7258 -7261 -9776 -1 2 0
-7258 -7263 -9776 -1 -3 2 0
-7260 -7261 -9776 -3 -1 2 0
-7260 -7263 -9776 -3 2 0
-7258 -7261 -9777 -1 3 0
-7258 -7262 -9777 -1 -2 3 0
-7259 -7261 -9777 -2 -1 3 0
-7259 -7262 -9777 -2 3 0
-7265 -7268 -9778 -2 1 0
-7265 -7269 -9778 -2 -3 1 0
-7266 -7268 -9778 -3 -2 1 0
-7266 -7269 -9778 -3 1 0
-7264 -7267 -9779 -1 2 0
-7264 -7269 -9779 -1 -3 2 0
-7266 -7267 -9779 -3 -1 2 0
-7266 -7269 -9779 -3 2 0
-7264 -7267 -9780 -1 3 0
-7264 -7268 -9780 -1 -2 3 0
-7265 -7267 -9780 -2 -1 3 0
-7265 -7268 -9780 -2 3 0
-7271 -7274 -9781 -2 1 0
-7271 -7275 -9781 -2 -3 1 0
-7272 -7274 -9781 -3 -2 1 0
-7272 -7275 -9781 -3 1 0
-7270 -7273 -9782 -1 2 0
-7270 -7275 -9782 -1 -3 2 0
-7272 -7273 -9782 -3 -1 2 0
-7272 -7275 -9782 -3 2 0
-7270 -7273 -9783 -1 3 0
-7270 -7274 -9783 -1 -2 3 0
-7271 -7273 -9783 -2 -1 3 0
-7271 -7274 -9783 -2 3 0
-7277 -7280 -9784 -2 1 0
-7277 -7281 -9784 -2 -3 1 0
-7278 -7280 -9784 -3 -2 1 0
-7278 -7281 -9784 -3 1 0
-7276 -7279 -9785 -1 2 0
-7276 -7281 -9785 -1 -3 2 0
-7278 -7279 -9785 -3 -1 2 0
-7278 -7281 -9785 -3 2 0
-7276 -7279 -9786 -1 3 0
-7276 -7280 -9786 -1 -2 3 0
-7277 -7279 -9786 -2 -1 3 0
-7277 -7280 -9786 -2 3 0
-7283 -7286 -9787 -2 1 0
-7283 -7287 -9787 -2 -3 1 0
-7284 -7286 -9787 -3 -2 1 0
-7284 -7287 -9787 -3 1 0
-7282 -7285 -9788 -1 2 0
-7282 -7287 -9788 -1 -3 2 0
-7284 -7285 -9788 -3 -1 2 0
-7284 -7287 -9788 -3 2 0
-7282 -7285 -9789 -1 3 0
-7282 -7286 -9789 -1 -2 3 0
-7283 -7285 -9789 -2 -1 3 0
-7283 -7286 -9789 -2 3 0
-7289 -7292 -9790 -2 1 0
-7289 -7293 -9790 -2 -3 1 0
-7290 -7292 -9790 -3 -2 1 0
-7290 -7293 -9790 -3 1 0
-7288 -7291 -9791 -1 2 0
-7288 -7293 -9791 -1 -3 2 0
-7290 -7291 -9791 -3 -1 2 0
-7290 -7293 -9791 -3 2 0
-7288 -7291 -9792 -1 3 0
-7288 -7292 -9792 -1 -2 3 0
-7289 -7291 -9792 -2 -1 3 0
-7289 -7292 -9792 -2 3 0
-7295 -7298 -9793 -2 1 0
-7295 -7299 -9793 -2 -3 1 0
-7296 -7298 -9793 -3 -2 1 0
-7296 -7299 -9793 -3 1 0
-7294 -7297 -9794 -1 2 0
-7294 -7299 -9794 -1 -3 2 0
-7296 -7297 -9794 -3 -1 2 0
-7296 -7299 -9794 -3 2 0
-7294 -7297 -9795 -1 3 0
-7294 -7298 -9795 -1 -2 3 0
-7295 -7297 -9795 -2 -1 3 0
-7295 -7298 -9795 -2 3 0
-7301 -7304 -9796 -2 1 0
-7301 -7305 -9796 -2 -3 1 0
-7302 -7304 -9796 -3 -2 1 0
-7302 -7305 -9796 -3 1 0
-7300 -7303 -9797 -1 2 0
-7300 -7305 -9797 -1 -3 2 0
-7302 -7303 -9797 -3 -1 2 0
-7302 -7305 -9797 -3 2 0
-7300 -7303 -9798 -1 3 0
-7300 -7304 -9798 -1 -2 3 0
-7301 -7303 -9798 -2 -1 3 0
-7301 -7304 -9798 -2 3 0
-7307 -7310 -9799 -2 1 0
-7307 -7311 -9799 -2 -3 1 0
-7308 -7310 -9799 -3 -2 1 0
-7308 -7311 -9799 -3 1 0
-7306 -7309 -9800 -1 2 0
-7306 -7311 -9800 -1 -3 2 0
-7308 -7309 -9800 -3 -1 2 0
-7308 -7311 -9800 -3 2 0
-7306 -7309 -9801 -1 3 0
-7306 -7310 -9801 -1 -2 3 0
-7307 -7309 -9801 -2 -1 3 0
-7307 -7310 -9801 -2 3 0
-7313 -7316 -9802 -2 1 0
-7313 -7317 -9802 -2 -3 1 0
-7314 -7316 -9802 -3 -2 1 0
-7314 -7317 -9802 -3 1 0
-7312 -7315 -9803 -1 2 0
-7312 -7317 -9803 -1 -3 2 0
-7314 -7315 -9803 -3 -1 2 0
-7314 -7317 -9803 -3 2 0
-7312 -7315 -9804 -1 3 0
-7312 -7316 -9804 -1 -2 3 0
-7313 -7315 -9804 -2 -1 3 0
-7313 -7316 -9804 -2 3 0
-7319 -7322 -9805 -2 1 0
-7319 -7323 -9805 -2 -3 1 0
-7320 -7322 -9805 -3 -2 1 0
-7320 -7323 -9805 -3 1 0
-7318 -7321 -9806 -1 2 0
-7318 -7323 -9806 -1 -3 2 0
-7320 -7321 -9806 -3 -1 2 0
-7320 -7323 -9806 -3 2 0
-7318 -7321 -9807 -1 3 0
-7318 -7322 -9807 -1 -2 3 0
-7319 -7321 -9807 -2 -1 3 0
-7319 -7322 -9807 -2 3 0
-7325 -7328 -9808 -2 1 0
-7325 -7329 -9808 -2 -3 1 0
-7326 -7328 -9808 -3 -2 1 0
-7326 -7329 -9808 -3 1 0
-7324 -7327 -9809 -1 2 0
-7324 -7329 -9809 -1 -3 2 0
-7326 -7327 -9809 -3 -1 2 0
-7326 -7329 -9809 -3 2 0
-7324 -7327 -9810 -1 3 0
-7324 -7328 -9810 -1 -2 3 0
-7325 -7327 -9810 -2 -1 3 0
-7325 -7328 -9810 -2 3 0
-7331 -7334 -9811 -2 1 0
-7331 -7335 -9811 -2 -3 1 0
-7332 -7334 -9811 -3 -2 1 0
-7332 -7335 -9811 -3 1 0
-7330 -7333 -9812 -1 2 0
-7330 -7335 -9812 -1 -3 2 0
-7332 -7333 -9812 -3 -1 2 0
-7332 -7335 -9812 -3 2 0
-7330 -7333 -9813 -1 3 0
-7330 -7334 -9813 -1 -2 3 0
-7331 -7333 -9813 -2 -1 3 0
-7331 -7334 -9813 -2 3 0
-7337 -7340 -9814 -2 1 0
-7337 -7341 -9814 -2 -3 1 0
-7338 -7340 -9814 -3 -2 1 0
-7338 -7341 -9814 -3 1 0
-7336 -7339 -9815 -1 2 0
-7336 -7341 -9815 -1 -3 2 0
-7338 -7339 -9815 -3 -1 2 0
-7338 -7341 -9815 -3 2 0
-7336 -7339 -9816 -1 3 0
-7336 -7340 -9816 -1 -2 3 0
-7337 -7339 -9816 -2 -1 3 0
-7337 -7340 -9816 -2 3 0
-7343 -7346 -9817 -2 1 0
-7343 -7347 -9817 -2 -3 1 0
-7344 -7346 -9817 -3 -2 1 0
-7344 -7347 -9817 -3 1 0
-7342 -7345 -9818 -1 2 0
-7342 -7347 -9818 -1 -3 2 0
-7344 -7345 -9818 -3 -1 2 0
-7344 -7347 -9818 -3 2 0
-7342 -7345 -9819 -1 3 0
-7342 -7346 -9819 -1 -2 3 0
-7343 -7345 -9819 -2 -1 3 0
-7343 -7346 -9819 -2 3 0
-7349 -7352 -9820 -2 1 0
-7349 -7353 -9820 -2 -3 1 0
-7350 -7352 -9820 -3 -2 1 0
-7350 -7353 -9820 -3 1 0
-7348 -7351 -9821 -1 2 0
-7348 -7353 -9821 -1 -3 2 0
-7350 -7351 -9821 -3 -1 2 0
-7350 -7353 -9821 -3 2 0
-7348 -7351 -9822 -1 3 0
-7348 -7352 -9822 -1 -2 3 0
-7349 -7351 -9822 -2 -1 3 0
-7349 -7352 -9822 -2 3 0
-7355 -7358 -9823 -2 1 0
-7355 -7359 -9823 -2 -3 1 0
-7356 -7358 -9823 -3 -2 1 0
-7356 -7359 -9823 -3 1 0
-7354 -7357 -9824 -1 2 0
-7354 -7359 -9824 -1 -3 2 0
-7356 -7357 -9824 -3 -1 2 0
-7356 -7359 -9824 -3 2 0
-7354 -7357 -9825 -1 3 0
-7354 -7358 -9825 -1 -2 3 0
-7355 -7357 -9825 -2 -1 3 0
-7355 -7358 -9825 -2 3 0
-7361 -7364 -9826 -2 1 0
-7361 -7365 -9826 -2 -3 1 0
-7362 -7364 -9826 -3 -2 1 0
-7362 -7365 -9826 -3 1 0
-7360 -7363 -9827 -1 2 0
-7360 -7365 -9827 -1 -3 2 0
-7362 -7363 -9827 -3 -1 2 0
-7362 -7365 -9827 -3 2 0
-7360 -7363 -9828 -1 3 0
-7360 -7364 -9828 -1 -2 3 0
-7361 -7363 -9828 -2 -1 3 0
-7361 -7364 -9828 -2 3 0
-7367 -7370 -9829 -2 1 0
-7367 -7371 -9829 -2 -3 1 0
-7368 -7370 -9829 -3 -2 1 0
-7368 -7371 -9829 -3 1 0
-7366 -7369 -9830 -1 2 0
-7366 -7371 -9830 -1 -3 2 0
-7368 -7369 -9830 -3 -1 2 0
-7368 -7371 -9830 -3 2 0
-7366 -7369 -9831 -1 3 0
-7366 -7370 -9831 -1 -2 3 0
-7367 -7369 -9831 -2 -1 3 0
-7367 -7370 -9831 -2 3 0
-7373 -7376 -9832 -2 1 0
-7373 -7377 -9832 -2 -3 1 0
-7374 -7376 -9832 -3 -2 1 0
-7374 -7377 -9832 -3 1 0
-7372 -7375 -9833 -1 2 0
-7372 -7377 -9833 -1 -3 2 0
-7374 -7375 -9833 -3 -1 2 0
-7374 -7377 -9833 -3 2 0
-7372 -7375 -9834 -1 3 0
-7372 -7376 -9834 -1 -2 3 0
-7373 -7375 -9834 -2 -1 3 0
-7373 -7376 -9834 -2 3 0
-7379 -7382 -9835 -2 1 0
-7379 -7383 -9835 -2 -3 1 0
-7380 -7382 -9835 -3 -2 1 0
-7380 -7383 -9835 -3 1 0
-7378 -7381 -9836 -1 2 0
-7378 -7383 -9836 -1 -3 2 0
-7380 -7381 -9836 -3 -1 2 0
-7380 -7383 -9836 -3 2 0
-7378 -7381 -9837 -1 3 0
-7378 -7382 -9837 -1 -2 3 0
-7379 -7381 -9837 -2 -1 3 0
-7379 -7382 -9837 -2 3 0
-7385 -7388 -9838 -2 1 0
-7385 -7389 -9838 -2 -3 1 0
-7386 -7388 -9838 -3 -2 1 0
-7386 -7389 -9838 -3 1 0
-7384 -7387 -9839 -1 2 0
-7384 -7389 -9839 -1 -3 2 0
-7386 -7387 -9839 -3 -1 2 0
-7386 -7389 -9839 -3 2 0
-7384 -7387 -9840 -1 3 0
-7384 -7388 -9840 -1 -2 3 0
-7385 -7387 -9840 -2 -1 3 0
-7385 -7388 -9840 -2 3 0
-7391 -7394 -9841 -2 1 0
-7391 -7395 -9841 -2 -3 1 0
-7392 -7394 -9841 -3 -2 1 0
-7392 -7395 -9841 -3 1 0
-7390 -7393 -9842 -1 2 0
-7390 -7395 -9842 -1 -3 2 0
-7392 -7393 -9842 -3 -1 2 0
-7392 -7395 -9842 -3 2 0
-7390 -7393 -9843 -1 3 0
-7390 -7394 -9843 -1 -2 3 0
-7391 -7393 -9843 -2 -1 3 0
-7391 -7394 -9843 -2 3 0
-7397 -7400 -9844 -2 1 0
-7397 -7401 -9844 -2 -3 1 0
-7398 -7400 -9844 -3 -2 1 0
-7398 -7401 -9844 -3 1 0
-7396 -7399 -9845 -1 2 0
-7396 -7401 -9845 -1 -3 2 0
-7398 -7399 -9845 -3 -1 2 0
-7398 -7401 -9845 -3 2 0
-7396 -7399 -9846 -1 3 0
-7396 -7400 -9846 -1 -2 3 0
-7397 -7399 -9846 -2 -1 3 0
-7397 -7400 -9846 -2 3 0
-7403 -7406 -9847 -2 1 0
-7403 -7407 -9847 -2 -3 1 0
-7404 -7406 -9847 -3 -2 1 0
-7404 -7407 -9847 -3 1 0
-7402 -7405 -9848 -1 2 0
-7402 -7407 -9848 -1 -3 2 0
-7404 -7405 -9848 -3 -1 2 0
-7404 -7407 -9848 -3 2 0
-7402 -7405 -9849 -1 3 0
-7402 -7406 -9849 -1 -2 3 0
-7403 -7405 -9849 -2 -1 3 0
-7403 -7406 -9849 -2 3 0
-7409 -7412 -9850 -2 1 0
-7409 -7413 -9850 -2 -3 1 0
-7410 -7412 -9850 -3 -2 1 0
-7410 -7413 -9850 -3 1 0
-7408 -7411 -9851 -1 2 0
-7408 -7413 -9851 -1 -3 2 0
-7410 -7411 -9851 -3 -1 2 0
-7410 -7413 -9851 -3 2 0
-7408 -7411 -9852 -1 3 0
-7408 -7412 -9852 -1 -2 3 0
-7409 -7411 -9852 -2 -1 3 0
-7409 -7412 -9852 -2 3 0
-7415 -7418 -9853 -2 1 0
-7415 -7419 -9853 -2 -3 1 0
-7416 -7418 -9853 -3 -2 1 0
-7416 -7419 -9853 -3 1 0
-7414 -7417 -9854 -1 2 0
-7414 -7419 -9854 -1 -3 2 0
-7416 -7417 -9854 -3 -1 2 0
-7416 -7419 -9854 -3 2 0
-7414 -7417 -9855 -1 3 0
-7414 -7418 -9855 -1 -2 3 0
-7415 -7417 -9855 -2 -1 3 0
-7415 -7418 -9855 -2 3 0
-7421 -7424 -9856 -2 1 0
-7421 -7425 -9856 -2 -3 1 0
-7422 -7424 -9856 -3 -2 1 0
-7422 -7425 -9856 -3 1 0
-7420 -7423 -9857 -1 2 0
-7420 -7425 -9857 -1 -3 2 0
-7422 -7423 -9857 -3 -1 2 0
-7422 -7425 -9857 -3 2 0
-7420 -7423 -9858 -1 3 0
-7420 -7424 -9858 -1 -2 3 0
-7421 -7423 -9858 -2 -1 3 0
-7421 -7424 -9858 -2 3 0
-7427 -7430 -9859 -2 1 0
-7427 -7431 -9859 -2 -3 1 0
-7428 -7430 -9859 -3 -2 1 0
-7428 -7431 -9859 -3 1 0
-7426 -7429 -9860 -1 2 0
-7426 -7431 -9860 -1 -3 2 0
-7428 -7429 -9860 -3 -1 2 0
-7428 -7431 -9860 -3 2 0
-7426 -7429 -9861 -1 3 0
-7426 -7430 -9861 -1 -2 3 0
-7427 -7429 -9861 -2 -1 3 0
-7427 -7430 -9861 -2 3 0
-7433 -7436 -9862 -2 1 0
-7433 -7437 -9862 -2 -3 1 0
-7434 -7436 -9862 -3 -2 1 0
-7434 -7437 -9862 -3 1 0
-7432 -7435 -9863 -1 2 0
-7432 -7437 -9863 -1 -3 2 0
-7434 -7435 -9863 -3 -1 2 0
-7434 -7437 -9863 -3 2 0
-7432 -7435 -9864 -1 3 0
-7432 -7436 -9864 -1 -2 3 0
-7433 -7435 -9864 -2 -1 3 0
-7433 -7436 -9864 -2 3 0
-7439 -7442 -9865 -2 1 0
-7439 -7443 -9865 -2 -3 1 0
-7440 -7442 -9865 -3 -2 1 0
-7440 -7443 -9865 -3 1 0
-7438 -7441 -9866 -1 2 0
-7438 -7443 -9866 -1 -3 2 0
-7440 -7441 -9866 -3 -1 2 0
-7440 -7443 -9866 -3 2 0
-7438 -7441 -9867 -1 3 0
-7438 -7442 -9867 -1 -2 3 0
-7439 -7441 -9867 -2 -1 3 0
-7439 -7442 -9867 -2 3 0
-7445 -7448 -9868 -2 1 0
-7445 -7449 -9868 -2 -3 1 0
-7446 -7448 -9868 -3 -2 1 0
-7446 -7449 -9868 -3 1 0
-7444 -7447 -9869 -1 2 0
-7444 -7449 -9869 -1 -3 2 0
-7446 -7447 -9869 -3 -1 2 0
-7446 -7449 -9869 -3 2 0
-7444 -7447 -9870 -1 3 0
-7444 -7448 -9870 -1 -2 3 0
-7445 -7447 -9870 -2 -1 3 0
-7445 -7448 -9870 -2 3 0
-7451 -7454 -9871 -2 1 0
-7451 -7455 -9871 -2 -3 1 0
-7452 -7454 -9871 -3 -2 1 0
-7452 -7455 -9871 -3 1 0
-7450 -7453 -9872 -1 2 0
-7450 -7455 -9872 -1 -3 2 0
-7452 -7453 -9872 -3 -1 2 0
-7452 -7455 -9872 -3 2 0
-7450 -7453 -9873 -1 3 0
-7450 -7454 -9873 -1 -2 3 0
-7451 -7453 -9873 -2 -1 3 0
-7451 -7454 -9873 -2 3 0
-7457 -7460 -9874 -2 1 0
-7457 -7461 -9874 -2 -3 1 0
-7458 -7460 -9874 -3 -2 1 0
-7458 -7461 -9874 -3 1 0
-7456 -7459 -9875 -1 2 0
-7456 -7461 -9875 -1 -3 2 0
-7458 -7459 -9875 -3 -1 2 0
-7458 -7461 -9875 -3 2 0
-7456 -7459 -9876 -1 3 0
-7456 -7460 -9876 -1 -2 3 0
-7457 -7459 -9876 -2 -1 3 0
-7457 -7460 -9876 -2 3 0
-7463 -7466 -9877 -2 1 0
-7463 -7467 -9877 -2 -3 1 0
-7464 -7466 -9877 -3 -2 1 0
-7464 -7467 -9877 -3 1 0
-7462 -7465 -9878 -1 2 0
-7462 -7467 -9878 -1 -3 2 0
-7464 -7465 -9878 -3 -1 2 0
-7464 -7467 -9878 -3 2 0
-7462 -7465 -9879 -1 3 0
-7462 -7466 -9879 -1 -2 3 0
-7463 -7465 -9879 -2 -1 3 0
-7463 -7466 -9879 -2 3 0
-7469 -7472 -9880 -2 1 0
-7469 -7473 -9880 -2 -3 1 0
-7470 -7472 -9880 -3 -2 1 0
-7470 -7473 -9880 -3 1 0
-7468 -7471 -9881 -1 2 0
-7468 -7473 -9881 -1 -3 2 0
-7470 -7471 -9881 -3 -1 2 0
-7470 -7473 -9881 -3 2 0
-7468 -7471 -9882 -1 3 0
-7468 -7472 -9882 -1 -2 3 0
-7469 -7471 -9882 -2 -1 3 0
-7469 -7472 -9882 -2 3 0
-7475 -7478 -9883 -2 1 0
-7475 -7479 -9883 -2 -3 1 0
-7476 -7478 -9883 -3 -2 1 0
-7476 -7479 -9883 -3 1 0
-7474 -7477 -9884 -1 2 0
-7474 -7479 -9884 -1 -3 2 0
-7476 -7477 -9884 -3 -1 2 0
-7476 -7479 -9884 -3 2 0
-7474 -7477 -9885 -1 3 0
-7474 -7478 -9885 -1 -2 3 0
-7475 -7477 -9885 -2 -1 3 0
-7475 -7478 -9885 -2 3 0
-7481 -7484 -9886 -2 1 0
-7481 -7485 -9886 -2 -3 1 0
-7482 -7484 -9886 -3 -2 1 0
-7482 -7485 -9886 -3 1 0
-7480 -7483 -9887 -1 2 0
-7480 -7485 -9887 -1 -3 2 0
-7482 -7483 -9887 -3 -1 2 0
-7482 -7485 -9887 -3 2 0
-7480 -7483 -9888 -1 3 0
-7480 -7484 -9888 -1 -2 3 0
-7481 -7483 -9888 -2 -1 3 0
-7481 -7484 -9888 -2 3 0
-7487 -7490 -9889 -2 1 0
-7487 -7491 -9889 -2 -3 1 0
-7488 -7490 -9889 -3 -2 1 0
-7488 -7491 -9889 -3 1 0
-7486 -7489 -9890 -1 2 0
-7486 -7491 -9890 -1 -3 2 0
-7488 -7489 -9890 -3 -1 2 0
-7488 -7491 -9890 -3 2 0
-7486 -7489 -9891 -1 3 0
-7486 -7490 -9891 -1 -2 3 0
-7487 -7489 -9891 -2 -1 3 0
-7487 -7490 -9891 -2 3 0
-7493 -7496 -9892 -2 1 0
-7493 -7497 -9892 -2 -3 1 0
-7494 -7496 -9892 -3 -2 1 0
-7494 -7497 -9892 -3 1 0
-7492 -7495 -9893 -1 2 0
-7492 -7497 -9893 -1 -3 2 0
-7494 -7495 -9893 -3 -1 2 0
-7494 -7497 -9893 -3 2 0
-7492 -7495 -9894 -1 3 0
-7492 -7496 -9894 -1 -2 3 0
-7493 -7495 -9894 -2 -1 3 0
-7493 -7496 -9894 -2 3 0
-7499 -7502 -9895 -2 1 0
-7499 -7503 -9895 -2 -3 1 0
-7500 -7502 -9895 -3 -2 1 0
-7500 -7503 -9895 -3 1 0
-7498 -7501 -9896 -1 2 0
-7498 -7503 -9896 -1 -3 2 0
-7500 -7501 -9896 -3 -1 2 0
-7500 -7503 -9896 -3 2 0
-7498 -7501 -9897 -1 3 0
-7498 -7502 -9897 -1 -2 3 0
-7499 -7501 -9897 -2 -1 3 0
-7499 -7502 -9897 -2 3 0
-7505 -7508 -9898 -2 1 0
-7505 -7509 -9898 -2 -3 1 0
-7506 -7508 -9898 -3 -2 1 0
-7506 -7509 -9898 -3 1 0
-7504 -7507 -9899 -1 2 0
-7504 -7509 -9899 -1 -3 2 0
-7506 -7507 -9899 -3 -1 2 0
-7506 -7509 -9899 -3 2 0
-7504 -7507 -9900 -1 3 0
-7504 -7508 -9900 -1 -2 3 0
-7505 -7507 -9900 -2 -1 3 0
-7505 -7508 -9900 -2 3 0
-7511 -7514 -9901 -2 1 0
-7511 -7515 -9901 -2 -3 1 0
-7512 -7514 -9901 -3 -2 1 0
-7512 -7515 -9901 -3 1 0
-7510 -7513 -9902 -1 2 0
-7510 -7515 -9902 -1 -3 2 0
-7512 -7513 -9902 -3 -1 2 0
-7512 -7515 -9902 -3 2 0
-7510 -7513 -9903 -1 3 0
-7510 -7514 -9903 -1 -2 3 0
-7511 -7513 -9903 -2 -1 3 0
-7511 -7514 -9903 -2 3 0
-7517 -7520 -9904 -2 1 0
-7517 -7521 -9904 -2 -3 1 0
-7518 -7520 -9904 -3 -2 1 0
-7518 -7521 -9904 -3 1 0
-7516 -7519 -9905 -1 2 0
-7516 -7521 -9905 -1 -3 2 0
-7518 -7519 -9905 -3 -1 2 0
-7518 -7521 -9905 -3 2 0
-7516 -7519 -9906 -1 3 0
-7516 -7520 -9906 -1 -2 3 0
-7517 -7519 -9906 -2 -1 3 0
-7517 -7520 -9906 -2 3 0
-7523 -7526 -9907 -2 1 0
-7523 -7527 -9907 -2 -3 1 0
-7524 -7526 -9907 -3 -2 1 0
-7524 -7527 -9907 -3 1 0
-7522 -7525 -9908 -1 2 0
-7522 -7527 -9908 -1 -3 2 0
-7524 -7525 -9908 -3 -1 2 0
-7524 -7527 -9908 -3 2 0
-7522 -7525 -9909 -1 3 0
-7522 -7526 -9909 -1 -2 3 0
-7523 -7525 -9909 -2 -1 3 0
-7523 -7526 -9909 -2 3 0
-7529 -7532 -9910 -2 1 0
-7529 -7533 -9910 -2 -3 1 0
-7530 -7532 -9910 -3 -2 1 0
-7530 -7533 -9910 -3 1 0
-7528 -7531 -9911 -1 2 0
-7528 -7533 -9911 -1 -3 2 0
-7530 -7531 -9911 -3 -1 2 0
-7530 -7533 -9911 -3 2 0
-7528 -7531 -9912 -1 3 0
-7528 -7532 -9912 -1 -2 3 0
-7529 -7531 -9912 -2 -1 3 0
-7529 -7532 -9912 -2 3 0
-7535 -7538 -9913 -2 1 0
-7535 -7539 -9913 -2 -3 1 0
-7536 -7538 -9913 -3 -2 1 0
-7536 -7539 -9913 -3 1 0
-7534 -7537 -9914 -1 2 0
-7534 -7539 -9914 -1 -3 2 0
-7536 -7537 -9914 -3 -1 2 0
-7536 -7539 -9914 -3 2 0
-7534 -7537 -9915 -1 3 0
-7534 -7538 -9915 -1 -2 3 0
-7535 -7537 -9915 -2 -1 3 0
-7535 -7538 -9915 -2 3 0
-7541 -7544 -9916 -2 1 0
-7541 -7545 -9916 -2 -3 1 0
-7542 -7544 -9916 -3 -2 1 0
-7542 -7545 -9916 -3 1 0
-7540 -7543 -9917 -1 2 0
-7540 -7545 -9917 -1 -3 2 0
-7542 -7543 -9917 -3 -1 2 0
-7542 -7545 -9917 -3 2 0
-7540 -7543 -9918 -1 3 0
-7540 -7544 -9918 -1 -2 3 0
-7541 -7543 -9918 -2 -1 3 0
-7541 -7544 -9918 -2 3 0
-7547 -7550 -9919 -2 1 0
-7547 -7551 -9919 -2 -3 1 0
-7548 -7550 -9919 -3 -2 1 0
-7548 -7551 -9919 -3 1 0
-7546 -7549 -9920 -1 2 0
-7546 -7551 -9920 -1 -3 2 0
-7548 -7549 -9920 -3 -1 2 0
-7548 -7551 -9920 -3 2 0
-7546 -7549 -9921 -1 3 0
-7546 -7550 -9921 -1 -2 3 0
-7547 -7549 -9921 -2 -1 3 0
-7547 -7550 -9921 -2 3 0
-7553 -7556 -9922 -2 1 0
-7553 -7557 -9922 -2 -3 1 0
-7554 -7556 -9922 -3 -2 1 0
-7554 -7557 -9922 -3 1 0
-7552 -7555 -9923 -1 2 0
-7552 -7557 -9923 -1 -3 2 0
-7554 -7555 -9923 -3 -1 2 0
-7554 -7557 -9923 -3 2 0
-7552 -7555 -9924 -1 3 0
-7552 -7556 -9924 -1 -2 3 0
-7553 -7555 -9924 -2 -1 3 0
-7553 -7556 -9924 -2 3 0
-7559 -7562 -9925 -2 1 0
-7559 -7563 -9925 -2 -3 1 0
-7560 -7562 -9925 -3 -2 1 0
-7560 -7563 -9925 -3 1 0
-7558 -7561 -9926 -1 2 0
-7558 -7563 -9926 -1 -3 2 0
-7560 -7561 -9926 -3 -1 2 0
-7560 -7563 -9926 -3 2 0
-7558 -7561 -9927 -1 3 0
-7558 -7562 -9927 -1 -2 3 0
-7559 -7561 -9927 -2 -1 3 0
-7559 -7562 -9927 -2 3 0
-7565 -7568 -9928 -2 1 0
-7565 -7569 -9928 -2 -3 1 0
-7566 -7568 -9928 -3 -2 1 0
-7566 -7569 -9928 -3 1 0
-7564 -7567 -9929 -1 2 0
-7564 -7569 -9929 -1 -3 2 0
-7566 -7567 -9929 -3 -1 2 0
-7566 -7569 -9929 -3 2 0
-7564 -7567 -9930 -1 3 0
-7564 -7568 -9930 -1 -2 3 0
-7565 -7567 -9930 -2 -1 3 0
-7565 -7568 -9930 -2 3 0
-7571 -7574 -9931 -2 1 0
-7571 -7575 -9931 -2 -3 1 0
-7572 -7574 -9931 -3 -2 1 0
-7572 -7575 -9931 -3 1 0
-7570 -7573 -9932 -1 2 0
-7570 -7575 -9932 -1 -3 2 0
-7572 -7573 -9932 -3 -1 2 0
-7572 -7575 -9932 -3 2 0
-7570 -7573 -9933 -1 3 0
-7570 -7574 -9933 -1 -2 3 0
-7571 -7573 -9933 -2 -1 3 0
-7571 -7574 -9933 -2 3 0
-7577 -7580 -9934 -2 1 0
-7577 -7581 -9934 -2 -3 1 0
-7578 -7580 -9934 -3 -2 1 0
-7578 -7581 -9934 -3 1 0
-7576 -7579 -9935 -1 2 0
-7576 -7581 -9935 -1 -3 2 0
-7578 -7579 -9935 -3 -1 2 0
-7578 -7581 -9935 -3 2 0
-7576 -7579 -9936 -1 3 0
-7576 -7580 -9936 -1 -2 3 0
-7577 -7579 -9936 -2 -1 3 0
-7577 -7580 -9936 -2 3 0
-7583 -7586 -9937 -2 1 0
-7583 -7587 -9937 -2 -3 1 0
-7584 -7586 -9937 -3 -2 1 0
-7584 -7587 -9937 -3 1 0
-7582 -7585 -9938 -1 2 0
-7582 -7587 -9938 -1 -3 2 0
-7584 -7585 -9938 -3 -1 2 0
-7584 -7587 -9938 -3 2 0
-7582 -7585 -9939 -1 3 0
-7582 -7586 -9939 -1 -2 3 0
-7583 -7585 -9939 -2 -1 3 0
-7583 -7586 -9939 -2 3 0
-7589 -7592 -9940 -2 1 0
-7589 -7593 -9940 -2 -3 1 0
-7590 -7592 -9940 -3 -2 1 0
-7590 -7593 -9940 -3 1 0
-7588 -7591 -9941 -1 2 0
-7588 -7593 -9941 -1 -3 2 0
-7590 -7591 -9941 -3 -1 2 0
-7590 -7593 -9941 -3 2 0
-7588 -7591 -9942 -1 3 0
-7588 -7592 -9942 -1 -2 3 0
-7589 -7591 -9942 -2 -1 3 0
-7589 -7592 -9942 -2 3 0
-7595 -7598 -9943 -2 1 0
-7595 -7599 -9943 -2 -3 1 0
-7596 -7598 -9943 -3 -2 1 0
-7596 -7599 -9943 -3 1 0
-7594 -7597 -9944 -1 2 0
-7594 -7599 -9944 -1 -3 2 0
-7596 -7597 -9944 -3 -1 2 0
-7596 -7599 -9944 -3 2 0
-7594 -7597 -9945 -1 3 0
-7594 -7598 -9945 -1 -2 3 0
-7595 -7597 -9945 -2 -1 3 0
-7595 -7598 -9945 -2 3 0
-7601 -7604 -9946 -2 1 0
-7601 -7605 -9946 -2 -3 1 0
-7602 -7604 -9946 -3 -2 1 0
-7602 -7605 -9946 -3 1 0
-7600 -7603 -9947 -1 2 0
-7600 -7605 -9947 -1 -3 2 0
-7602 -7603 -9947 -3 -1 2 0
-7602 -7605 -9947 -3 2 0
-7600 -7603 -9948 -1 3 0
-7600 -7604 -9948 -1 -2 3 0
-7601 -7603 -9948 -2 -1 3 0
-7601 -7604 -9948 -2 3 0
-7607 -7610 -9949 -2 1 0
-7607 -7611 -9949 -2 -3 1 0
-7608 -7610 -9949 -3 -2 1 0
-7608 -7611 -9949 -3 1 0
-7606 -7609 -9950 -1 2 0
-7606 -7611 -9950 -1 -3 2 0
-7608 -7609 -9950 -3 -1 2 0
-7608 -7611 -9950 -3 2 0
-7606 -7609 -9951 -1 3 0
-7606 -7610 -9951 -1 -2 3 0
-7607 -7609 -9951 -2 -1 3 0
-7607 -7610 -9951 -2 3 0
-7613 -7616 -9952 -2 1 0
-7613 -7617 -9952 -2 -3 1 0
-7614 -7616 -9952 -3 -2 1 0
-7614 -7617 -9952 -3 1 0
-7612 -7615 -9953 -1 2 0
-7612 -7617 -9953 -1 -3 2 0
-7614 -7615 -9953 -3 -1 2 0
-7614 -7617 -9953 -3 2 0
-7612 -7615 -9954 -1 3 0
-7612 -7616 -9954 -1 -2 3 0
-7613 -7615 -9954 -2 -1 3 0
-7613 -7616 -9954 -2 3 0
-7619 -7622 -9955 -2 1 0
-7619 -7623 -9955 -2 -3 1 0
-7620 -7622 -9955 -3 -2 1 0
-7620 -7623 -9955 -3 1 0
-7618 -7621 -9956 -1 2 0
-7618 -7623 -9956 -1 -3 2 0
-7620 -7621 -9956 -3 -1 2 0
-7620 -7623 -9956 -3 2 0
-7618 -7621 -9957 -1 3 0
-7618 -7622 -9957 -1 -2 3 0
-7619 -7621 -9957 -2 -1 3 0
-7619 -7622 -9957 -2 3 0
-7625 -7628 -9958 -2 1 0
-7625 -7629 -9958 -2 -3 1 0
-7626 -7628 -9958 -3 -2 1 0
-7626 -7629 -9958 -3 1 0
-7624 -7627 -9959 -1 2 0
-7624 -7629 -9959 -1 -3 2 0
-7626 -7627 -9959 -3 -1 2 0
-7626 -7629 -9959 -3 2 0
-7624 -7627 -9960 -1 3 0
-7624 -7628 -9960 -1 -2 3 0
-7625 -7627 -9960 -2 -1 3 0
-7625 -7628 -9960 -2 3 0
-7631 -7634 -9961 -2 1 0
-7631 -7635 -9961 -2 -3 1 0
-7632 -7634 -9961 -3 -2 1 0
-7632 -7635 -9961 -3 1 0
-7630 -7633 -9962 -1 2 0
-7630 -7635 -9962 -1 -3 2 0
-7632 -7633 -9962 -3 -1 2 0
-7632 -7635 -9962 -3 2 0
-7630 -7633 -9963 -1 3 0
-7630 -7634 -9963 -1 -2 3 0
-7631 -7633 -9963 -2 -1 3 0
-7631 -7634 -9963 -2 3 0
-7637 -7640 -9964 -2 1 0
-7637 -7641 -9964 -2 -3 1 0
-7638 -7640 -9964 -3 -2 1 0
-7638 -7641 -9964 -3 1 0
-7636 -7639 -9965 -1 2 0
-7636 -7641 -9965 -1 -3 2 0
-7638 -7639 -9965 -3 -1 2 0
-7638 -7641 -9965 -3 2 0
-7636 -7639 -9966 -1 3 0
-7636 -7640 -9966 -1 -2 3 0
-7637 -7639 -9966 -2 -1 3 0
-7637 -7640 -9966 -2 3 0
-7643 -7646 -9967 -2 1 0
-7643 -7647 -9967 -2 -3 1 0
-7644 -7646 -9967 -3 -2 1 0
-7644 -7647 -9967 -3 1 0
-7642 -7645 -9968 -1 2 0
-7642 -7647 -9968 -1 -3 2 0
-7644 -7645 -9968 -3 -1 2 0
-7644 -7647 -9968 -3 2 0
-7642 -7645 -9969 -1 3 0
-7642 -7646 -9969 -1 -2 3 0
-7643 -7645 -9969 -2 -1 3 0
-7643 -7646 -9969 -2 3 0
-7649 -7652 -9970 -2 1 0
-7649 -7653 -9970 -2 -3 1 0
-7650 -7652 -9970 -3 -2 1 0
-7650 -7653 -9970 -3 1 0
-7648 -7651 -9971 -1 2 0
-7648 -7653 -9971 -1 -3 2 0
-7650 -7651 -9971 -3 -1 2 0
-7650 -7653 -9971 -3 2 0
-7648 -7651 -9972 -1 3 0
-7648 -7652 -9972 -1 -2 3 0
-7649 -7651 -9972 -2 -1 3 0
-7649 -7652 -9972 -2 3 0
-7655 -7658 -9973 -2 1 0
-7655 -7659 -9973 -2 -3 1 0
-7656 -7658 -9973 -3 -2 1 0
-7656 -7659 -9973 -3 1 0
-7654 -7657 -9974 -1 2 0
-7654 -7659 -9974 -1 -3 2 0
-7656 -7657 -9974 -3 -1 2 0
-7656 -7659 -9974 -3 2 0
-7654 -7657 -9975 -1 3 0
-7654 -7658 -9975 -1 -2 3 0
-7655 -7657 -9975 -2 -1 3 0
-7655 -7658 -9975 -2 3 0
-7661 -7664 -9976 -2 1 0
-7661 -7665 -9976 -2 -3 1 0
-7662 -7664 -9976 -3 -2 1 0
-7662 -7665 -9976 -3 1 0
-7660 -7663 -9977 -1 2 0
-7660 -7665 -9977 -1 -3 2 0
-7662 -7663 -9977 -3 -1 2 0
-7662 -7665 -9977 -3 2 0
-7660 -7663 -9978 -1 3 0
-7660 -7664 -9978 -1 -2 3 0
-7661 -7663 -9978 -2 -1 3 0
-7661 -7664 -9978 -2 3 0
-7667 -7670 -9979 -2 1 0
-7667 -7671 -9979 -2 -3 1 0
-7668 -7670 -9979 -3 -2 1 0
-7668 -7671 -9979 -3 1 0
-7666 -7669 -9980 -1 2 0
-7666 -7671 -9980 -1 -3 2 0
-7668 -7669 -9980 -3 -1 2 0
-7668 -7671 -9980 -3 2 0
-7666 -7669 -9981 -1 3 0
-7666 -7670 -9981 -1 -2 3 0
-7667 -7669 -9981 -2 -1 3 0
-7667 -7670 -9981 -2 3 0
-7673 -7676 -9982 -2 1 0
-7673 -7677 -9982 -2 -3 1 0
-7674 -7676 -9982 -3 -2 1 0
-7674 -7677 -9982 -3 1 0
-7672 -7675 -9983 -1 2 0
-7672 -7677 -9983 -1 -3 2 0
-7674 -7675 -9983 -3 -1 2 0
-7674 -7677 -9983 -3 2 0
-7672 -7675 -9984 -1 3 0
-7672 -7676 -9984 -1 -2 3 0
-7673 -7675 -9984 -2 -1 3 0
-7673 -7676 -9984 -2 3 0
-7679 -7682 -9985 -2 1 0
-7679 -7683 -9985 -2 -3 1 0
-7680 -7682 -9985 -3 -2 1 0
-7680 -7683 -9985 -3 1 0
-7678 -7681 -9986 -1 2 0
-7678 -7683 -9986 -1 -3 2 0
-7680 -7681 -9986 -3 -1 2 0
-7680 -7683 -9986 -3 2 0
-7678 -7681 -9987 -1 3 0
-7678 -7682 -9987 -1 -2 3 0
-7679 -7681 -9987 -2 -1 3 0
-7679 -7682 -9987 -2 3 0
-7685 -7688 -9988 -2 1 0
-7685 -7689 -9988 -2 -3 1 0
-7686 -7688 -9988 -3 -2 1 0
-7686 -7689 -9988 -3 1 0
-7684 -7687 -9989 -1 2 0
-7684 -7689 -9989 -1 -3 2 0
-7686 -7687 -9989 -3 -1 2 0
-7686 -7689 -9989 -3 2 0
-7684 -7687 -9990 -1 3 0
-7684 -7688 -9990 -1 -2 3 0
-7685 -7687 -9990 -2 -1 3 0
-7685 -7688 -9990 -2 3 0
-7691 -7694 -9991 -2 1 0
-7691 -7695 -9991 -2 -3 1 0
-7692 -7694 -9991 -3 -2 1 0
-7692 -7695 -9991 -3 1 0
-7690 -7693 -9992 -1 2 0
-7690 -7695 -9992 -1 -3 2 0
-7692 -7693 -9992 -3 -1 2 0
-7692 -7695 -9992 -3 2 0
-7690 -7693 -9993 -1 3 0
-7690 -7694 -9993 -1 -2 3 0
-7691 -7693 -9993 -2 -1 3 0
-7691 -7694 -9993 -2 3 0
-7697 -7700 -9994 -2 1 0
-7697 -7701 -9994 -2 -3 1 0
-7698 -7700 -9994 -3 -2 1 0
-7698 -7701 -9994 -3 1 0
-7696 -7699 -9995 -1 2 0
-7696 -7701 -9995 -1 -3 2 0
-7698 -7699 -9995 -3 -1 2 0
-7698 -7701 -9995 -3 2 0
-7696 -7699 -9996 -1 3 0
-7696 -7700 -9996 -1 -2 3 0
-7697 -7699 -9996 -2 -1 3 0
-7697 -7700 -9996 -2 3 0
-7703 -7706 -9997 -2 1 0
-7703 -7707 -9997 -2 -3 1 0
-7704 -7706 -9997 -3 -2 1 0
-7704 -7707 -9997 -3 1 0
-7702 -7705 -9998 -1 2 0
-7702 -7707 -9998 -1 -3 2 0
-7704 -7705 -9998 -3 -1 2 0
-7704 -7707 -9998 -3 2 0
-7702 -7705 -9999 -1 3 0
-7702 -7706 -9999 -1 -2 3 0
-7703 -7705 -9999 -2 -1 3 0
-7703 -7706 -9999 -2 3 0
-7709 -7712 -10000 -2 1 0
-7709 -7713 -10000 -2 -3 1 0
-7710 -7712 -10000 -3 -2 1 0
-7710 -7713 -10000 -3 1 0
-7708 -7711 -10001 -1 2 0
-7708 -7713 -10001 -1 -3 2 0
-7710 -7711 -10001 -3 -1 2 0
-7710 -7713 -10001 -3 2 0
-7708 -7711 -10002 -1 3 0
-7708 -7712 -10002 -1 -2 3 0
-7709 -7711 -10002 -2 -1 3 0
-7709 -7712 -10002 -2 3 0
-7715 -7718 -10003 -2 1 0
-7715 -7719 -10003 -2 -3 1 0
-7716 -7718 -10003 -3 -2 1 0
-7716 -7719 -10003 -3 1 0
-7714 -7717 -10004 -1 2 0
-7714 -7719 -10004 -1 -3 2 0
-7716 -7717 -10004 -3 -1 2 0
-7716 -7719 -10004 -3 2 0
-7714 -7717 -10005 -1 3 0
-7714 -7718 -10005 -1 -2 3 0
-7715 -7717 -10005 -2 -1 3 0
-7715 -7718 -10005 -2 3 0
-7721 -7724 -10006 -2 1 0
-7721 -7725 -10006 -2 -3 1 0
-7722 -7724 -10006 -3 -2 1 0
-7722 -7725 -10006 -3 1 0
-7720 -7723 -10007 -1 2 0
-7720 -7725 -10007 -1 -3 2 0
-7722 -7723 -10007 -3 -1 2 0
-7722 -7725 -10007 -3 2 0
-7720 -7723 -10008 -1 3 0
-7720 -7724 -10008 -1 -2 3 0
-7721 -7723 -10008 -2 -1 3 0
-7721 -7724 -10008 -2 3 0
-7727 -7730 -10009 -2 1 0
-7727 -7731 -10009 -2 -3 1 0
-7728 -7730 -10009 -3 -2 1 0
-7728 -7731 -10009 -3 1 0
-7726 -7729 -10010 -1 2 0
-7726 -7731 -10010 -1 -3 2 0
-7728 -7729 -10010 -3 -1 2 0
-7728 -7731 -10010 -3 2 0
-7726 -7729 -10011 -1 3 0
-7726 -7730 -10011 -1 -2 3 0
-7727 -7729 -10011 -2 -1 3 0
-7727 -7730 -10011 -2 3 0
-7733 -7736 -10012 -2 1 0
-7733 -7737 -10012 -2 -3 1 0
-7734 -7736 -10012 -3 -2 1 0
-7734 -7737 -10012 -3 1 0
-7732 -7735 -10013 -1 2 0
-7732 -7737 -10013 -1 -3 2 0
-7734 -7735 -10013 -3 -1 2 0
-7734 -7737 -10013 -3 2 0
-7732 -7735 -10014 -1 3 0
-7732 -7736 -10014 -1 -2 3 0
-7733 -7735 -10014 -2 -1 3 0
-7733 -7736 -10014 -2 3 0
-7739 -7742 -10015 -2 1 0
-7739 -7743 -10015 -2 -3 1 0
-7740 -7742 -10015 -3 -2 1 0
-7740 -7743 -10015 -3 1 0
-7738 -7741 -10016 -1 2 0
-7738 -7743 -10016 -1 -3 2 0
-7740 -7741 -10016 -3 -1 2 0
-7740 -7743 -10016 -3 2 0
-7738 -7741 -10017 -1 3 0
-7738 -7742 -10017 -1 -2 3 0
-7739 -7741 -10017 -2 -1 3 0
-7739 -7742 -10017 -2 3 0
-7745 -7748 -10018 -2 1 0
-7745 -7749 -10018 -2 -3 1 0
-7746 -7748 -10018 -3 -2 1 0
-7746 -7749 -10018 -3 1 0
-7744 -7747 -10019 -1 2 0
-7744 -7749 -10019 -1 -3 2 0
-7746 -7747 -10019 -3 -1 2 0
-7746 -7749 -10019 -3 2 0
-7744 -7747 -10020 -1 3 0
-7744 -7748 -10020 -1 -2 3 0
-7745 -7747 -10020 -2 -1 3 0
-7745 -7748 -10020 -2 3 0
-7751 -7754 -10021 -2 1 0
-7751 -7755 -10021 -2 -3 1 0
-7752 -7754 -10021 -3 -2 1 0
-7752 -7755 -10021 -3 1 0
-7750 -7753 -10022 -1 2 0
-7750 -7755 -10022 -1 -3 2 0
-7752 -7753 -10022 -3 -1 2 0
-7752 -7755 -10022 -3 2 0
-7750 -7753 -10023 -1 3 0
-7750 -7754 -10023 -1 -2 3 0
-7751 -7753 -10023 -2 -1 3 0
-7751 -7754 -10023 -2 3 0
-7757 -7760 -10024 -2 1 0
-7757 -7761 -10024 -2 -3 1 0
-7758 -7760 -10024 -3 -2 1 0
-7758 -7761 -10024 -3 1 0
-7756 -7759 -10025 -1 2 0
-7756 -7761 -10025 -1 -3 2 0
-7758 -7759 -10025 -3 -1 2 0
-7758 -7761 -10025 -3 2 0
-7756 -7759 -10026 -1 3 0
-7756 -7760 -10026 -1 -2 3 0
-7757 -7759 -10026 -2 -1 3 0
-7757 -7760 -10026 -2 3 0
-7763 -7766 -10027 -2 1 0
-7763 -7767 -10027 -2 -3 1 0
-7764 -7766 -10027 -3 -2 1 0
-7764 -7767 -10027 -3 1 0
-7762 -7765 -10028 -1 2 0
-7762 -7767 -10028 -1 -3 2 0
-7764 -7765 -10028 -3 -1 2 0
-7764 -7767 -10028 -3 2 0
-7762 -7765 -10029 -1 3 0
-7762 -7766 -10029 -1 -2 3 0
-7763 -7765 -10029 -2 -1 3 0
-7763 -7766 -10029 -2 3 0
-7769 -7772 -10030 -2 1 0
-7769 -7773 -10030 -2 -3 1 0
-7770 -7772 -10030 -3 -2 1 0
-7770 -7773 -10030 -3 1 0
-7768 -7771 -10031 -1 2 0
-7768 -7773 -10031 -1 -3 2 0
-7770 -7771 -10031 -3 -1 2 0
-7770 -7773 -10031 -3 2 0
-7768 -7771 -10032 -1 3 0
-7768 -7772 -10032 -1 -2 3 0
-7769 -7771 -10032 -2 -1 3 0
-7769 -7772 -10032 -2 3 0
-7775 -7778 -10033 -2 1 0
-7775 -7779 -10033 -2 -3 1 0
-7776 -7778 -10033 -3 -2 1 0
-7776 -7779 -10033 -3 1 0
-7774 -7777 -10034 -1 2 0
-7774 -7779 -10034 -1 -3 2 0
-7776 -7777 -10034 -3 -1 2 0
-7776 -7779 -10034 -3 2 0
-7774 -7777 -10035 -1 3 0
-7774 -7778 -10035 -1 -2 3 0
-7775 -7777 -10035 -2 -1 3 0
-7775 -7778 -10035 -2 3 0
-7781 -7784 -10036 -2 1 0
-7781 -7785 -10036 -2 -3 1 0
-7782 -7784 -10036 -3 -2 1 0
-7782 -7785 -10036 -3 1 0
-7780 -7783 -10037 -1 2 0
-7780 -7785 -10037 -1 -3 2 0
-7782 -7783 -10037 -3 -1 2 0
-7782 -7785 -10037 -3 2 0
-7780 -7783 -10038 -1 3 0
-7780 -7784 -10038 -1 -2 3 0
-7781 -7783 -10038 -2 -1 3 0
-7781 -7784 -10038 -2 3 0
-7787 -7790 -10039 -2 1 0
-7787 -7791 -10039 -2 -3 1 0
-7788 -7790 -10039 -3 -2 1 0
-7788 -7791 -10039 -3 1 0
-7786 -7789 -10040 -1 2 0
-7786 -7791 -10040 -1 -3 2 0
-7788 -7789 -10040 -3 -1 2 0
-7788 -7791 -10040 -3 2 0
-7786 -7789 -10041 -1 3 0
-7786 -7790 -10041 -1 -2 3 0
-7787 -7789 -10041 -2 -1 3 0
-7787 -7790 -10041 -2 3 0
-7793 -7796 -10042 -2 1 0
-7793 -7797 -10042 -2 -3 1 0
-7794 -7796 -10042 -3 -2 1 0
-7794 -7797 -10042 -3 1 0
-7792 -7795 -10043 -1 2 0
-7792 -7797 -10043 -1 -3 2 0
-7794 -7795 -10043 -3 -1 2 0
-7794 -7797 -10043 -3 2 0
-7792 -7795 -10044 -1 3 0
-7792 -7796 -10044 -1 -2 3 0
-7793 -7795 -10044 -2 -1 3 0
-7793 -7796 -10044 -2 3 0
-7799 -7802 -10045 -2 1 0
-7799 -7803 -10045 -2 -3 1 0
-7800 -7802 -10045 -3 -2 1 0
-7800 -7803 -10045 -3 1 0
-7798 -7801 -10046 -1 2 0
-7798 -7803 -10046 -1 -3 2 0
-7800 -7801 -10046 -3 -1 2 0
-7800 -7803 -10046 -3 2 0
-7798 -7801 -10047 -1 3 0
-7798 -7802 -10047 -1 -2 3 0
-7799 -7801 -10047 -2 -1 3 0
-7799 -7802 -10047 -2 3 0
-7805 -7808 -10048 -2 1 0
-7805 -7809 -10048 -2 -3 1 0
-7806 -7808 -10048 -3 -2 1 0
-7806 -7809 -10048 -3 1 0
-7804 -7807 -10049 -1 2 0
-7804 -7809 -10049 -1 -3 2 0
-7806 -7807 -10049 -3 -1 2 0
-7806 -7809 -10049 -3 2 0
-7804 -7807 -10050 -1 3 0
-7804 -7808 -10050 -1 -2 3 0
-7805 -7807 -10050 -2 -1 3 0
-7805 -7808 -10050 -2 3 0
-7811 -7814 -10051 -2 1 0
-7811 -7815 -10051 -2 -3 1 0
-7812 -7814 -10051 -3 -2 1 0
-7812 -7815 -10051 -3 1 0
-7810 -7813 -10052 -1 2 0
-7810 -7815 -10052 -1 -3 2 0
-7812 -7813 -10052 -3 -1 2 0
-7812 -7815 -10052 -3 2 0
-7810 -7813 -10053 -1 3 0
-7810 -7814 -10053 -1 -2 3 0
-7811 -7813 -10053 -2 -1 3 0
-7811 -7814 -10053 -2 3 0
-7817 -7820 -10054 -2 1 0
-7817 -7821 -10054 -2 -3 1 0
-7818 -7820 -10054 -3 -2 1 0
-7818 -7821 -10054 -3 1 0
-7816 -7819 -10055 -1 2 0
-7816 -7821 -10055 -1 -3 2 0
-7818 -7819 -10055 -3 -1 2 0
-7818 -7821 -10055 -3 2 0
-7816 -7819 -10056 -1 3 0
-7816 -7820 -10056 -1 -2 3 0
-7817 -7819 -10056 -2 -1 3 0
-7817 -7820 -10056 -2 3 0
-7823 -7826 -10057 -2 1 0
-7823 -7827 -10057 -2 -3 1 0
-7824 -7826 -10057 -3 -2 1 0
-7824 -7827 -10057 -3 1 0
-7822 -7825 -10058 -1 2 0
-7822 -7827 -10058 -1 -3 2 0
-7824 -7825 -10058 -3 -1 2 0
-7824 -7827 -10058 -3 2 0
-7822 -7825 -10059 -1 3 0
-7822 -7826 -10059 -1 -2 3 0
-7823 -7825 -10059 -2 -1 3 0
-7823 -7826 -10059 -2 3 0
-7829 -7832 -10060 -2 1 0
-7829 -7833 -10060 -2 -3 1 0
-7830 -7832 -10060 -3 -2 1 0
-7830 -7833 -10060 -3 1 0
-7828 -7831 -10061 -1 2 0
-7828 -7833 -10061 -1 -3 2 0
-7830 -7831 -10061 -3 -1 2 0
-7830 -7833 -10061 -3 2 0
-7828 -7831 -10062 -1 3 0
-7828 -7832 -10062 -1 -2 3 0
-7829 -7831 -10062 -2 -1 3 0
-7829 -7832 -10062 -2 3 0
-7835 -7838 -10063 -2 1 0
-7835 -7839 -10063 -2 -3 1 0
-7836 -7838 -10063 -3 -2 1 0
-7836 -7839 -10063 -3 1 0
-7834 -7837 -10064 -1 2 0
-7834 -7839 -10064 -1 -3 2 0
-7836 -7837 -10064 -3 -1 2 0
-7836 -7839 -10064 -3 2 0
-7834 -7837 -10065 -1 3 0
-7834 -7838 -10065 -1 -2 3 0
-7835 -7837 -10065 -2 -1 3 0
-7835 -7838 -10065 -2 3 0
-7841 -7844 -10066 -2 1 0
-7841 -7845 -10066 -2 -3 1 0
-7842 -7844 -10066 -3 -2 1 0
-7842 -7845 -10066 -3 1 0
-7840 -7843 -10067 -1 2 0
-7840 -7845 -10067 -1 -3 2 0
-7842 -7843 -10067 -3 -1 2 0
-7842 -7845 -10067 -3 2 0
-7840 -7843 -10068 -1 3 0
-7840 -7844 -10068 -1 -2 3 0
-7841 -7843 -10068 -2 -1 3 0
-7841 -7844 -10068 -2 3 0
-7847 -7850 -10069 -2 1 0
-7847 -7851 -10069 -2 -3 1 0
-7848 -7850 -10069 -3 -2 1 0
-7848 -7851 -10069 -3 1 0
-7846 -7849 -10070 -1 2 0
-7846 -7851 -10070 -1 -3 2 0
-7848 -7849 -10070 -3 -1 2 0
-7848 -7851 -10070 -3 2 0
-7846 -7849 -10071 -1 3 0
-7846 -7850 -10071 -1 -2 3 0
-7847 -7849 -10071 -2 -1 3 0
-7847 -7850 -10071 -2 3 0
-7853 -7856 -10072 -2 1 0
-7853 -7857 -10072 -2 -3 1 0
-7854 -7856 -10072 -3 -2 1 0
-7854 -7857 -10072 -3 1 0
-7852 -7855 -10073 -1 2 0
-7852 -7857 -10073 -1 -3 2 0
-7854 -7855 -10073 -3 -1 2 0
-7854 -7857 -10073 -3 2 0
-7852 -7855 -10074 -1 3 0
-7852 -7856 -10074 -1 -2 3 0
-7853 -7855 -10074 -2 -1 3 0
-7853 -7856 -10074 -2 3 0
-7859 -7862 -10075 -2 1 0
-7859 -7863 -10075 -2 -3 1 0
-7860 -7862 -10075 -3 -2 1 0
-7860 -7863 -10075 -3 1 0
-7858 -7861 -10076 -1 2 0
-7858 -7863 -10076 -1 -3 2 0
-7860 -7861 -10076 -3 -1 2 0
-7860 -7863 -10076 -3 2 0
-7858 -7861 -10077 -1 3 0
-7858 -7862 -10077 -1 -2 3 0
-7859 -7861 -10077 -2 -1 3 0
-7859 -7862 -10077 -2 3 0
-7865 -7868 -10078 -2 1 0
-7865 -7869 -10078 -2 -3 1 0
-7866 -7868 -10078 -3 -2 1 0
-7866 -7869 -10078 -3 1 0
-7864 -7867 -10079 -1 2 0
-7864 -7869 -10079 -1 -3 2 0
-7866 -7867 -10079 -3 -1 2 0
-7866 -7869 -10079 -3 2 0
-7864 -7867 -10080 -1 3 0
-7864 -7868 -10080 -1 -2 3 0
-7865 -7867 -10080 -2 -1 3 0
-7865 -7868 -10080 -2 3 0
-7871 -7874 -10081 -2 1 0
-7871 -7875 -10081 -2 -3 1 0
-7872 -7874 -10081 -3 -2 1 0
-7872 -7875 -10081 -3 1 0
-7870 -7873 -10082 -1 2 0
-7870 -7875 -10082 -1 -3 2 0
-7872 -7873 -10082 -3 -1 2 0
-7872 -7875 -10082 -3 2 0
-7870 -7873 -10083 -1 3 0
-7870 -7874 -10083 -1 -2 3 0
-7871 -7873 -10083 -2 -1 3 0
-7871 -7874 -10083 -2 3 0
-7877 -7880 -10084 -2 1 0
-7877 -7881 -10084 -2 -3 1 0
-7878 -7880 -10084 -3 -2 1 0
-7878 -7881 -10084 -3 1 0
-7876 -7879 -10085 -1 2 0
-7876 -7881 -10085 -1 -3 2 0
-7878 -7879 -10085 -3 -1 2 0
-7878 -7881 -10085 -3 2 0
-7876 -7879 -10086 -1 3 0
-7876 -7880 -10086 -1 -2 3 0
-7877 -7879 -10086 -2 -1 3 0
-7877 -7880 -10086 -2 3 0
-7883 -7886 -10087 -2 1 0
-7883 -7887 -10087 -2 -3 1 0
-7884 -7886 -10087 -3 -2 1 0
-7884 -7887 -10087 -3 1 0
-7882 -7885 -10088 -1 2 0
-7882 -7887 -10088 -1 -3 2 0
-7884 -7885 -10088 -3 -1 2 0
-7884 -7887 -10088 -3 2 0
-7882 -7885 -10089 -1 3 0
-7882 -7886 -10089 -1 -2 3 0
-7883 -7885 -10089 -2 -1 3 0
-7883 -7886 -10089 -2 3 0
-7889 -7892 -10090 -2 1 0
-7889 -7893 -10090 -2 -3 1 0
-7890 -7892 -10090 -3 -2 1 0
-7890 -7893 -10090 -3 1 0
-7888 -7891 -10091 -1 2 0
-7888 -7893 -10091 -1 -3 2 0
-7890 -7891 -10091 -3 -1 2 0
-7890 -7893 -10091 -3 2 0
-7888 -7891 -10092 -1 3 0
-7888 -7892 -10092 -1 -2 3 0
-7889 -7891 -10092 -2 -1 3 0
-7889 -7892 -10092 -2 3 0
-7895 -7898 -10093 -2 1 0
-7895 -7899 -10093 -2 -3 1 0
-7896 -7898 -10093 -3 -2 1 0
-7896 -7899 -10093 -3 1 0
-7894 -7897 -10094 -1 2 0
-7894 -7899 -10094 -1 -3 2 0
-7896 -7897 -10094 -3 -1 2 0
-7896 -7899 -10094 -3 2 0
-7894 -7897 -10095 -1 3 0
-7894 -7898 -10095 -1 -2 3 0
-7895 -7897 -10095 -2 -1 3 0
-7895 -7898 -10095 -2 3 0
-7901 -7904 -10096 -2 1 0
-7901 -7905 -10096 -2 -3 1 0
-7902 -7904 -10096 -3 -2 1 0
-7902 -7905 -10096 -3 1 0
-7900 -7903 -10097 -1 2 0
-7900 -7905 -10097 -1 -3 2 0
-7902 -7903 -10097 -3 -1 2 0
-7902 -7905 -10097 -3 2 0
-7900 -7903 -10098 -1 3 0
-7900 -7904 -10098 -1 -2 3 0
-7901 -7903 -10098 -2 -1 3 0
-7901 -7904 -10098 -2 3 0
-7907 -7910 -10099 -2 1 0
-7907 -7911 -10099 -2 -3 1 0
-7908 -7910 -10099 -3 -2 1 0
-7908 -7911 -10099 -3 1 0
-7906 -7909 -10100 -1 2 0
-7906 -7911 -10100 -1 -3 2 0
-7908 -7909 -10100 -3 -1 2 0
-7908 -7911 -10100 -3 2 0
-7906 -7909 -10101 -1 3 0
-7906 -7910 -10101 -1 -2 3 0
-7907 -7909 -10101 -2 -1 3 0
-7907 -7910 -10101 -2 3 0
-7913 -7916 -10102 -2 1 0
-7913 -7917 -10102 -2 -3 1 0
-7914 -7916 -10102 -3 -2 1 0
-7914 -7917 -10102 -3 1 0
-7912 -7915 -10103 -1 2 0
-7912 -7917 -10103 -1 -3 2 0
-7914 -7915 -10103 -3 -1 2 0
-7914 -7917 -10103 -3 2 0
-7912 -7915 -10104 -1 3 0
-7912 -7916 -10104 -1 -2 3 0
-7913 -7915 -10104 -2 -1 3 0
-7913 -7916 -10104 -2 3 0
-7919 -7922 -10105 -2 1 0
-7919 -7923 -10105 -2 -3 1 0
-7920 -7922 -10105 -3 -2 1 0
-7920 -7923 -10105 -3 1 0
-7918 -7921 -10106 -1 2 0
-7918 -7923 -10106 -1 -3 2 0
-7920 -7921 -10106 -3 -1 2 0
-7920 -7923 -10106 -3 2 0
-7918 -7921 -10107 -1 3 0
-7918 -7922 -10107 -1 -2 3 0
-7919 -7921 -10107 -2 -1 3 0
-7919 -7922 -10107 -2 3 0
-7925 -7928 -10108 -2 1 0
-7925 -7929 -10108 -2 -3 1 0
-7926 -7928 -10108 -3 -2 1 0
-7926 -7929 -10108 -3 1 0
-7924 -7927 -10109 -1 2 0
-7924 -7929 -10109 -1 -3 2 0
-7926 -7927 -10109 -3 -1 2 0
-7926 -7929 -10109 -3 2 0
-7924 -7927 -10110 -1 3 0
-7924 -7928 -10110 -1 -2 3 0
-7925 -7927 -10110 -2 -1 3 0
-7925 -7928 -10110 -2 3 0
-7931 -7934 -10111 -2 1 0
-7931 -7935 -10111 -2 -3 1 0
-7932 -7934 -10111 -3 -2 1 0
-7932 -7935 -10111 -3 1 0
-7930 -7933 -10112 -1 2 0
-7930 -7935 -10112 -1 -3 2 0
-7932 -7933 -10112 -3 -1 2 0
-7932 -7935 -10112 -3 2 0
-7930 -7933 -10113 -1 3 0
-7930 -7934 -10113 -1 -2 3 0
-7931 -7933 -10113 -2 -1 3 0
-7931 -7934 -10113 -2 3 0
-7937 -7940 -10114 -2 1 0
-7937 -7941 -10114 -2 -3 1 0
-7938 -7940 -10114 -3 -2 1 0
-7938 -7941 -10114 -3 1 0
-7936 -7939 -10115 -1 2 0
-7936 -7941 -10115 -1 -3 2 0
-7938 -7939 -10115 -3 -1 2 0
-7938 -7941 -10115 -3 2 0
-7936 -7939 -10116 -1 3 0
-7936 -7940 -10116 -1 -2 3 0
-7937 -7939 -10116 -2 -1 3 0
-7937 -7940 -10116 -2 3 0
-7943 -7946 -10117 -2 1 0
-7943 -7947 -10117 -2 -3 1 0
-7944 -7946 -10117 -3 -2 1 0
-7944 -7947 -10117 -3 1 0
-7942 -7945 -10118 -1 2 0
-7942 -7947 -10118 -1 -3 2 0
-7944 -7945 -10118 -3 -1 2 0
-7944 -7947 -10118 -3 2 0
-7942 -7945 -10119 -1 3 0
-7942 -7946 -10119 -1 -2 3 0
-7943 -7945 -10119 -2 -1 3 0
-7943 -7946 -10119 -2 3 0
-7949 -7952 -10120 -2 1 0
-7949 -7953 -10120 -2 -3 1 0
-7950 -7952 -10120 -3 -2 1 0
-7950 -7953 -10120 -3 1 0
-7948 -7951 -10121 -1 2 0
-7948 -7953 -10121 -1 -3 2 0
-7950 -7951 -10121 -3 -1 2 0
-7950 -7953 -10121 -3 2 0
-7948 -7951 -10122 -1 3 0
-7948 -7952 -10122 -1 -2 3 0
-7949 -7951 -10122 -2 -1 3 0
-7949 -7952 -10122 -2 3 0
-7955 -7958 -10123 -2 1 0
-7955 -7959 -10123 -2 -3 1 0
-7956 -7958 -10123 -3 -2 1 0
-7956 -7959 -10123 -3 1 0
-7954 -7957 -10124 -1 2 0
-7954 -7959 -10124 -1 -3 2 0
-7956 -7957 -10124 -3 -1 2 0
-7956 -7959 -10124 -3 2 0
-7954 -7957 -10125 -1 3 0
-7954 -7958 -10125 -1 -2 3 0
-7955 -7957 -10125 -2 -1 3 0
-7955 -7958 -10125 -2 3 0
-7961 -7964 -10126 -2 1 0
-7961 -7965 -10126 -2 -3 1 0
-7962 -7964 -10126 -3 -2 1 0
-7962 -7965 -10126 -3 1 0
-7960 -7963 -10127 -1 2 0
-7960 -7965 -10127 -1 -3 2 0
-7962 -7963 -10127 -3 -1 2 0
-7962 -7965 -10127 -3 2 0
-7960 -7963 -10128 -1 3 0
-7960 -7964 -10128 -1 -2 3 0
-7961 -7963 -10128 -2 -1 3 0
-7961 -7964 -10128 -2 3 0
-7967 -7970 -10129 -2 1 0
-7967 -7971 -10129 -2 -3 1 0
-7968 -7970 -10129 -3 -2 1 0
-7968 -7971 -10129 -3 1 0
-7966 -7969 -10130 -1 2 0
-7966 -7971 -10130 -1 -3 2 0
-7968 -7969 -10130 -3 -1 2 0
-7968 -7971 -10130 -3 2 0
-7966 -7969 -10131 -1 3 0
-7966 -7970 -10131 -1 -2 3 0
-7967 -7969 -10131 -2 -1 3 0
-7967 -7970 -10131 -2 3 0
-7973 -7976 -10132 -2 1 0
-7973 -7977 -10132 -2 -3 1 0
-7974 -7976 -10132 -3 -2 1 0
-7974 -7977 -10132 -3 1 0
-7972 -7975 -10133 -1 2 0
-7972 -7977 -10133 -1 -3 2 0
-7974 -7975 -10133 -3 -1 2 0
-7974 -7977 -10133 -3 2 0
-7972 -7975 -10134 -1 3 0
-7972 -7976 -10134 -1 -2 3 0
-7973 -7975 -10134 -2 -1 3 0
-7973 -7976 -10134 -2 3 0
-7979 -7982 -10135 -2 1 0
-7979 -7983 -10135 -2 -3 1 0
-7980 -7982 -10135 -3 -2 1 0
-7980 -7983 -10135 -3 1 0
-7978 -7981 -10136 -1 2 0
-7978 -7983 -10136 -1 -3 2 0
-7980 -7981 -10136 -3 -1 2 0
-7980 -7983 -10136 -3 2 0
-7978 -7981 -10137 -1 3 0
-7978 -7982 -10137 -1 -2 3 0
-7979 -7981 -10137 -2 -1 3 0
-7979 -7982 -10137 -2 3 0
-7985 -7988 -10138 -2 1 0
-7985 -7989 -10138 -2 -3 1 0
-7986 -7988 -10138 -3 -2 1 0
-7986 -7989 -10138 -3 1 0
-7984 -7987 -10139 -1 2 0
-7984 -7989 -10139 -1 -3 2 0
-7986 -7987 -10139 -3 -1 2 0
-7986 -7989 -10139 -3 2 0
-7984 -7987 -10140 -1 3 0
-7984 -7988 -10140 -1 -2 3 0
-7985 -7987 -10140 -2 -1 3 0
-7985 -7988 -10140 -2 3 0
-7991 -7994 -10141 -2 1 0
-7991 -7995 -10141 -2 -3 1 0
-7992 -7994 -10141 -3 -2 1 0
-7992 -7995 -10141 -3 1 0
-7990 -7993 -10142 -1 2 0
-7990 -7995 -10142 -1 -3 2 0
-7992 -7993 -10142 -3 -1 2 0
-7992 -7995 -10142 -3 2 0
-7990 -7993 -10143 -1 3 0
-7990 -7994 -10143 -1 -2 3 0
-7991 -7993 -10143 -2 -1 3 0
-7991 -7994 -10143 -2 3 0
-7997 -8000 -10144 -2 1 0
-7997 -8001 -10144 -2 -3 1 0
-7998 -8000 -10144 -3 -2 1 0
-7998 -8001 -10144 -3 1 0
-7996 -7999 -10145 -1 2 0
-7996 -8001 -10145 -1 -3 2 0
-7998 -7999 -10145 -3 -1 2 0
-7998 -8001 -10145 -3 2 0
-7996 -7999 -10146 -1 3 0
-7996 -8000 -10146 -1 -2 3 0
-7997 -7999 -10146 -2 -1 3 0
-7997 -8000 -10146 -2 3 0
-8003 -8006 -10147 -2 1 0
-8003 -8007 -10147 -2 -3 1 0
-8004 -8006 -10147 -3 -2 1 0
-8004 -8007 -10147 -3 1 0
-8002 -8005 -10148 -1 2 0
-8002 -8007 -10148 -1 -3 2 0
-8004 -8005 -10148 -3 -1 2 0
-8004 -8007 -10148 -3 2 0
-8002 -8005 -10149 -1 3 0
-8002 -8006 -10149 -1 -2 3 0
-8003 -8005 -10149 -2 -1 3 0
-8003 -8006 -10149 -2 3 0
-8009 -8012 -10150 -2 1 0
-8009 -8013 -10150 -2 -3 1 0
-8010 -8012 -10150 -3 -2 1 0
-8010 -8013 -10150 -3 1 0
-8008 -8011 -10151 -1 2 0
-8008 -8013 -10151 -1 -3 2 0
-8010 -8011 -10151 -3 -1 2 0
-8010 -8013 -10151 -3 2 0
-8008 -8011 -10152 -1 3 0
-8008 -8012 -10152 -1 -2 3 0
-8009 -8011 -10152 -2 -1 3 0
-8009 -8012 -10152 -2 3 0
-8015 -8018 -10153 -2 1 0
-8015 -8019 -10153 -2 -3 1 0
-8016 -8018 -10153 -3 -2 1 0
-8016 -8019 -10153 -3 1 0
-8014 -8017 -10154 -1 2 0
-8014 -8019 -10154 -1 -3 2 0
-8016 -8017 -10154 -3 -1 2 0
-8016 -8019 -10154 -3 2 0
-8014 -8017 -10155 -1 3 0
-8014 -8018 -10155 -1 -2 3 0
-8015 -8017 -10155 -2 -1 3 0
-8015 -8018 -10155 -2 3 0
-8021 -8024 -10156 -2 1 0
-8021 -8025 -10156 -2 -3 1 0
-8022 -8024 -10156 -3 -2 1 0
-8022 -8025 -10156 -3 1 0
-8020 -8023 -10157 -1 2 0
-8020 -8025 -10157 -1 -3 2 0
-8022 -8023 -10157 -3 -1 2 0
-8022 -8025 -10157 -3 2 0
-8020 -8023 -10158 -1 3 0
-8020 -8024 -10158 -1 -2 3 0
-8021 -8023 -10158 -2 -1 3 0
-8021 -8024 -10158 -2 3 0
-8027 -8030 -10159 -2 1 0
-8027 -8031 -10159 -2 -3 1 0
-8028 -8030 -10159 -3 -2 1 0
-8028 -8031 -10159 -3 1 0
-8026 -8029 -10160 -1 2 0
-8026 -8031 -10160 -1 -3 2 0
-8028 -8029 -10160 -3 -1 2 0
-8028 -8031 -10160 -3 2 0
-8026 -8029 -10161 -1 3 0
-8026 -8030 -10161 -1 -2 3 0
-8027 -8029 -10161 -2 -1 3 0
-8027 -8030 -10161 -2 3 0
-8033 -8036 -10162 -2 1 0
-8033 -8037 -10162 -2 -3 1 0
-8034 -8036 -10162 -3 -2 1 0
-8034 -8037 -10162 -3 1 0
-8032 -8035 -10163 -1 2 0
-8032 -8037 -10163 -1 -3 2 0
-8034 -8035 -10163 -3 -1 2 0
-8034 -8037 -10163 -3 2 0
-8032 -8035 -10164 -1 3 0
-8032 -8036 -10164 -1 -2 3 0
-8033 -8035 -10164 -2 -1 3 0
-8033 -8036 -10164 -2 3 0
-8039 -8042 -10165 -2 1 0
-8039 -8043 -10165 -2 -3 1 0
-8040 -8042 -10165 -3 -2 1 0
-8040 -8043 -10165 -3 1 0
-8038 -8041 -10166 -1 2 0
-8038 -8043 -10166 -1 -3 2 0
-8040 -8041 -10166 -3 -1 2 0
-8040 -8043 -10166 -3 2 0
-8038 -8041 -10167 -1 3 0
-8038 -8042 -10167 -1 -2 3 0
-8039 -8041 -10167 -2 -1 3 0
-8039 -8042 -10167 -2 3 0
-8045 -8048 -10168 -2 1 0
-8045 -8049 -10168 -2 -3 1 0
-8046 -8048 -10168 -3 -2 1 0
-8046 -8049 -10168 -3 1 0
-8044 -8047 -10169 -1 2 0
-8044 -8049 -10169 -1 -3 2 0
-8046 -8047 -10169 -3 -1 2 0
-8046 -8049 -10169 -3 2 0
-8044 -8047 -10170 -1 3 0
-8044 -8048 -10170 -1 -2 3 0
-8045 -8047 -10170 -2 -1 3 0
-8045 -8048 -10170 -2 3 0
-8051 -8054 -10171 -2 1 0
-8051 -8055 -10171 -2 -3 1 0
-8052 -8054 -10171 -3 -2 1 0
-8052 -8055 -10171 -3 1 0
-8050 -8053 -10172 -1 2 0
-8050 -8055 -10172 -1 -3 2 0
-8052 -8053 -10172 -3 -1 2 0
-8052 -8055 -10172 -3 2 0
-8050 -8053 -10173 -1 3 0
-8050 -8054 -10173 -1 -2 3 0
-8051 -8053 -10173 -2 -1 3 0
-8051 -8054 -10173 -2 3 0
-8057 -8060 -10174 -2 1 0
-8057 -8061 -10174 -2 -3 1 0
-8058 -8060 -10174 -3 -2 1 0
-8058 -8061 -10174 -3 1 0
-8056 -8059 -10175 -1 2 0
-8056 -8061 -10175 -1 -3 2 0
-8058 -8059 -10175 -3 -1 2 0
-8058 -8061 -10175 -3 2 0
-8056 -8059 -10176 -1 3 0
-8056 -8060 -10176 -1 -2 3 0
-8057 -8059 -10176 -2 -1 3 0
-8057 -8060 -10176 -2 3 0
-8063 -8066 -10177 -2 1 0
-8063 -8067 -10177 -2 -3 1 0
-8064 -8066 -10177 -3 -2 1 0
-8064 -8067 -10177 -3 1 0
-8062 -8065 -10178 -1 2 0
-8062 -8067 -10178 -1 -3 2 0
-8064 -8065 -10178 -3 -1 2 0
-8064 -8067 -10178 -3 2 0
-8062 -8065 -10179 -1 3 0
-8062 -8066 -10179 -1 -2 3 0
-8063 -8065 -10179 -2 -1 3 0
-8063 -8066 -10179 -2 3 0
-8069 -8072 -10180 -2 1 0
-8069 -8073 -10180 -2 -3 1 0
-8070 -8072 -10180 -3 -2 1 0
-8070 -8073 -10180 -3 1 0
-8068 -8071 -10181 -1 2 0
-8068 -8073 -10181 -1 -3 2 0
-8070 -8071 -10181 -3 -1 2 0
-8070 -8073 -10181 -3 2 0
-8068 -8071 -10182 -1 3 0
-8068 -8072 -10182 -1 -2 3 0
-8069 -8071 -10182 -2 -1 3 0
-8069 -8072 -10182 -2 3 0
-8075 -8078 -10183 -2 1 0
-8075 -8079 -10183 -2 -3 1 0
-8076 -8078 -10183 -3 -2 1 0
-8076 -8079 -10183 -3 1 0
-8074 -8077 -10184 -1 2 0
-8074 -8079 -10184 -1 -3 2 0
-8076 -8077 -10184 -3 -1 2 0
-8076 -8079 -10184 -3 2 0
-8074 -8077 -10185 -1 3 0
-8074 -8078 -10185 -1 -2 3 0
-8075 -8077 -10185 -2 -1 3 0
-8075 -8078 -10185 -2 3 0
-8081 -8084 -10186 -2 1 0
-8081 -8085 -10186 -2 -3 1 0
-8082 -8084 -10186 -3 -2 1 0
-8082 -8085 -10186 -3 1 0
-8080 -8083 -10187 -1 2 0
-8080 -8085 -10187 -1 -3 2 0
-8082 -8083 -10187 -3 -1 2 0
-8082 -8085 -10187 -3 2 0
-8080 -8083 -10188 -1 3 0
-8080 -8084 -10188 -1 -2 3 0
-8081 -8083 -10188 -2 -1 3 0
-8081 -8084 -10188 -2 3 0
-8087 -8090 -10189 -2 1 0
-8087 -8091 -10189 -2 -3 1 0
-8088 -8090 -10189 -3 -2 1 0
-8088 -8091 -10189 -3 1 0
-8086 -8089 -10190 -1 2 0
-8086 -8091 -10190 -1 -3 2 0
-8088 -8089 -10190 -3 -1 2 0
-8088 -8091 -10190 -3 2 0
-8086 -8089 -10191 -1 3 0
-8086 -8090 -10191 -1 -2 3 0
-8087 -8089 -10191 -2 -1 3 0
-8087 -8090 -10191 -2 3 0
-8093 -8096 -10192 -2 1 0
-8093 -8097 -10192 -2 -3 1 0
-8094 -8096 -10192 -3 -2 1 0
-8094 -8097 -10192 -3 1 0
-8092 -8095 -10193 -1 2 0
-8092 -8097 -10193 -1 -3 2 0
-8094 -8095 -10193 -3 -1 2 0
-8094 -8097 -10193 -3 2 0
-8092 -8095 -10194 -1 3 0
-8092 -8096 -10194 -1 -2 3 0
-8093 -8095 -10194 -2 -1 3 0
-8093 -8096 -10194 -2 3 0
-8099 -8102 -10195 -2 1 0
-8099 -8103 -10195 -2 -3 1 0
-8100 -8102 -10195 -3 -2 1 0
-8100 -8103 -10195 -3 1 0
-8098 -8101 -10196 -1 2 0
-8098 -8103 -10196 -1 -3 2 0
-8100 -8101 -10196 -3 -1 2 0
-8100 -8103 -10196 -3 2 0
-8098 -8101 -10197 -1 3 0
-8098 -8102 -10197 -1 -2 3 0
-8099 -8101 -10197 -2 -1 3 0
-8099 -8102 -10197 -2 3 0
-8105 -8108 -10198 -2 1 0
-8105 -8109 -10198 -2 -3 1 0
-8106 -8108 -10198 -3 -2 1 0
-8106 -8109 -10198 -3 1 0
-8104 -8107 -10199 -1 2 0
-8104 -8109 -10199 -1 -3 2 0
-8106 -8107 -10199 -3 -1 2 0
-8106 -8109 -10199 -3 2 0
-8104 -8107 -10200 -1 3 0
-8104 -8108 -10200 -1 -2 3 0
-8105 -8107 -10200 -2 -1 3 0
-8105 -8108 -10200 -2 3 0
-8111 -8114 -10201 -2 1 0
-8111 -8115 -10201 -2 -3 1 0
-8112 -8114 -10201 -3 -2 1 0
-8112 -8115 -10201 -3 1 0
-8110 -8113 -10202 -1 2 0
-8110 -8115 -10202 -1 -3 2 0
-8112 -8113 -10202 -3 -1 2 0
-8112 -8115 -10202 -3 2 0
-8110 -8113 -10203 -1 3 0
-8110 -8114 -10203 -1 -2 3 0
-8111 -8113 -10203 -2 -1 3 0
-8111 -8114 -10203 -2 3 0
-8117 -8120 -10204 -2 1 0
-8117 -8121 -10204 -2 -3 1 0
-8118 -8120 -10204 -3 -2 1 0
-8118 -8121 -10204 -3 1 0
-8116 -8119 -10205 -1 2 0
-8116 -8121 -10205 -1 -3 2 0
-8118 -8119 -10205 -3 -1 2 0
-8118 -8121 -10205 -3 2 0
-8116 -8119 -10206 -1 3 0
-8116 -8120 -10206 -1 -2 3 0
-8117 -8119 -10206 -2 -1 3 0
-8117 -8120 -10206 -2 3 0
-8123 -8126 -10207 -2 1 0
-8123 -8127 -10207 -2 -3 1 0
-8124 -8126 -10207 -3 -2 1 0
-8124 -8127 -10207 -3 1 0
-8122 -8125 -10208 -1 2 0
-8122 -8127 -10208 -1 -3 2 0
-8124 -8125 -10208 -3 -1 2 0
-8124 -8127 -10208 -3 2 0
-8122 -8125 -10209 -1 3 0
-8122 -8126 -10209 -1 -2 3 0
-8123 -8125 -10209 -2 -1 3 0
-8123 -8126 -10209 -2 3 0
-8129 -8132 -10210 -2 1 0
-8129 -8133 -10210 -2 -3 1 0
-8130 -8132 -10210 -3 -2 1 0
-8130 -8133 -10210 -3 1 0
-8128 -8131 -10211 -1 2 0
-8128 -8133 -10211 -1 -3 2 0
-8130 -8131 -10211 -3 -1 2 0
-8130 -8133 -10211 -3 2 0
-8128 -8131 -10212 -1 3 0
-8128 -8132 -10212 -1 -2 3 0
-8129 -8131 -10212 -2 -1 3 0
-8129 -8132 -10212 -2 3 0
-8135 -8138 -10213 -2 1 0
-8135 -8139 -10213 -2 -3 1 0
-8136 -8138 -10213 -3 -2 1 0
-8136 -8139 -10213 -3 1 0
-8134 -8137 -10214 -1 2 0
-8134 -8139 -10214 -1 -3 2 0
-8136 -8137 -10214 -3 -1 2 0
-8136 -8139 -10214 -3 2 0
-8134 -8137 -10215 -1 3 0
-8134 -8138 -10215 -1 -2 3 0
-8135 -8137 -10215 -2 -1 3 0
-8135 -8138 -10215 -2 3 0
-8141 -8144 -10216 -2 1 0
-8141 -8145 -10216 -2 -3 1 0
-8142 -8144 -10216 -3 -2 1 0
-8142 -8145 -10216 -3 1 0
-8140 -8143 -10217 -1 2 0
-8140 -8145 -10217 -1 -3 2 0
-8142 -8143 -10217 -3 -1 2 0
-8142 -8145 -10217 -3 2 0
-8140 -8143 -10218 -1 3 0
-8140 -8144 -10218 -1 -2 3 0
-8141 -8143 -10218 -2 -1 3 0
-8141 -8144 -10218 -2 3 0
-8147 -8150 -10219 -2 1 0
-8147 -8151 -10219 -2 -3 1 0
-8148 -8150 -10219 -3 -2 1 0
-8148 -8151 -10219 -3 1 0
-8146 -8149 -10220 -1 2 0
-8146 -8151 -10220 -1 -3 2 0
-8148 -8149 -10220 -3 -1 2 0
-8148 -8151 -10220 -3 2 0
-8146 -8149 -10221 -1 3 0
-8146 -8150 -10221 -1 -2 3 0
-8147 -8149 -10221 -2 -1 3 0
-8147 -8150 -10221 -2 3 0
-8153 -8156 -10222 -2 1 0
-8153 -8157 -10222 -2 -3 1 0
-8154 -8156 -10222 -3 -2 1 0
-8154 -8157 -10222 -3 1 0
-8152 -8155 -10223 -1 2 0
-8152 -8157 -10223 -1 -3 2 0
-8154 -8155 -10223 -3 -1 2 0
-8154 -8157 -10223 -3 2 0
-8152 -8155 -10224 -1 3 0
-8152 -8156 -10224 -1 -2 3 0
-8153 -8155 -10224 -2 -1 3 0
-8153 -8156 -10224 -2 3 0
-8159 -8162 -10225 -2 1 0
-8159 -8163 -10225 -2 -3 1 0
-8160 -8162 -10225 -3 -2 1 0
-8160 -8163 -10225 -3 1 0
-8158 -8161 -10226 -1 2 0
-8158 -8163 -10226 -1 -3 2 0
-8160 -8161 -10226 -3 -1 2 0
-8160 -8163 -10226 -3 2 0
-8158 -8161 -10227 -1 3 0
-8158 -8162 -10227 -1 -2 3 0
-8159 -8161 -10227 -2 -1 3 0
-8159 -8162 -10227 -2 3 0
-8165 -8168 -10228 -2 1 0
-8165 -8169 -10228 -2 -3 1 0
-8166 -8168 -10228 -3 -2 1 0
-8166 -8169 -10228 -3 1 0
-8164 -8167 -10229 -1 2 0
-8164 -8169 -10229 -1 -3 2 0
-8166 -8167 -10229 -3 -1 2 0
-8166 -8169 -10229 -3 2 0
-8164 -8167 -10230 -1 3 0
-8164 -8168 -10230 -1 -2 3 0
-8165 -8167 -10230 -2 -1 3 0
-8165 -8168 -10230 -2 3 0
-8171 -8174 -10231 -2 1 0
-8171 -8175 -10231 -2 -3 1 0
-8172 -8174 -10231 -3 -2 1 0
-8172 -8175 -10231 -3 1 0
-8170 -8173 -10232 -1 2 0
-8170 -8175 -10232 -1 -3 2 0
-8172 -8173 -10232 -3 -1 2 0
-8172 -8175 -10232 -3 2 0
-8170 -8173 -10233 -1 3 0
-8170 -8174 -10233 -1 -2 3 0
-8171 -8173 -10233 -2 -1 3 0
-8171 -8174 -10233 -2 3 0
-8177 -8180 -10234 -2 1 0
-8177 -8181 -10234 -2 -3 1 0
-8178 -8180 -10234 -3 -2 1 0
-8178 -8181 -10234 -3 1 0
-8176 -8179 -10235 -1 2 0
-8176 -8181 -10235 -1 -3 2 0
-8178 -8179 -10235 -3 -1 2 0
-8178 -8181 -10235 -3 2 0
-8176 -8179 -10236 -1 3 0
-8176 -8180 -10236 -1 -2 3 0
-8177 -8179 -10236 -2 -1 3 0
-8177 -8180 -10236 -2 3 0
-8183 -8186 -10237 -2 1 0
-8183 -8187 -10237 -2 -3 1 0
-8184 -8186 -10237 -3 -2 1 0
-8184 -8187 -10237 -3 1 0
-8182 -8185 -10238 -1 2 0
-8182 -8187 -10238 -1 -3 2 0
-8184 -8185 -10238 -3 -1 2 0
-8184 -8187 -10238 -3 2 0
-8182 -8185 -10239 -1 3 0
-8182 -8186 -10239 -1 -2 3 0
-8183 -8185 -10239 -2 -1 3 0
-8183 -8186 -10239 -2 3 0
-8189 -8192 -10240 -2 1 0
-8189 -8193 -10240 -2 -3 1 0
-8190 -8192 -10240 -3 -2 1 0
-8190 -8193 -10240 -3 1 0
-8188 -8191 -10241 -1 2 0
-8188 -8193 -10241 -1 -3 2 0
-8190 -8191 -10241 -3 -1 2 0
-8190 -8193 -10241 -3 2 0
-8188 -8191 -10242 -1 3 0
-8188 -8192 -10242 -1 -2 3 0
-8189 -8191 -10242 -2 -1 3 0
-8189 -8192 -10242 -2 3 0
-8195 -8198 -10243 -2 1 0
-8195 -8199 -10243 -2 -3 1 0
-8196 -8198 -10243 -3 -2 1 0
-8196 -8199 -10243 -3 1 0
-8194 -8197 -10244 -1 2 0
-8194 -8199 -10244 -1 -3 2 0
-8196 -8197 -10244 -3 -1 2 0
-8196 -8199 -10244 -3 2 0
-8194 -8197 -10245 -1 3 0
-8194 -8198 -10245 -1 -2 3 0
-8195 -8197 -10245 -2 -1 3 0
-8195 -8198 -10245 -2 3 0
-8201 -8204 -10246 -2 1 0
-8201 -8205 -10246 -2 -3 1 0
-8202 -8204 -10246 -3 -2 1 0
-8202 -8205 -10246 -3 1 0
-8200 -8203 -10247 -1 2 0
-8200 -8205 -10247 -1 -3 2 0
-8202 -8203 -10247 -3 -1 2 0
-8202 -8205 -10247 -3 2 0
-8200 -8203 -10248 -1 3 0
-8200 -8204 -10248 -1 -2 3 0
-8201 -8203 -10248 -2 -1 3 0
-8201 -8204 -10248 -2 3 0
-8207 -8210 -10249 -2 1 0
-8207 -8211 -10249 -2 -3 1 0
-8208 -8210 -10249 -3 -2 1 0
-8208 -8211 -10249 -3 1 0
-8206 -8209 -10250 -1 2 0
-8206 -8211 -10250 -1 -3 2 0
-8208 -8209 -10250 -3 -1 2 0
-8208 -8211 -10250 -3 2 0
-8206 -8209 -10251 -1 3 0
-8206 -8210 -10251 -1 -2 3 0
-8207 -8209 -10251 -2 -1 3 0
-8207 -8210 -10251 -2 3 0
-8213 -8216 -10252 -2 1 0
-8213 -8217 -10252 -2 -3 1 0
-8214 -8216 -10252 -3 -2 1 0
-8214 -8217 -10252 -3 1 0
-8212 -8215 -10253 -1 2 0
-8212 -8217 -10253 -1 -3 2 0
-8214 -8215 -10253 -3 -1 2 0
-8214 -8217 -10253 -3 2 0
-8212 -8215 -10254 -1 3 0
-8212 -8216 -10254 -1 -2 3 0
-8213 -8215 -10254 -2 -1 3 0
-8213 -8216 -10254 -2 3 0
-8219 -8222 -10255 -2 1 0
-8219 -8223 -10255 -2 -3 1 0
-8220 -8222 -10255 -3 -2 1 0
-8220 -8223 -10255 -3 1 0
-8218 -8221 -10256 -1 2 0
-8218 -8223 -10256 -1 -3 2 0
-8220 -8221 -10256 -3 -1 2 0
-8220 -8223 -10256 -3 2 0
-8218 -8221 -10257 -1 3 0
-8218 -8222 -10257 -1 -2 3 0
-8219 -8221 -10257 -2 -1 3 0
-8219 -8222 -10257 -2 3 0
-8225 -8228 -10258 -2 1 0
-8225 -8229 -10258 -2 -3 1 0
-8226 -8228 -10258 -3 -2 1 0
-8226 -8229 -10258 -3 1 0
-8224 -8227 -10259 -1 2 0
-8224 -8229 -10259 -1 -3 2 0
-8226 -8227 -10259 -3 -1 2 0
-8226 -8229 -10259 -3 2 0
-8224 -8227 -10260 -1 3 0
-8224 -8228 -10260 -1 -2 3 0
-8225 -8227 -10260 -2 -1 3 0
-8225 -8228 -10260 -2 3 0
-8231 -8234 -10261 -2 1 0
-8231 -8235 -10261 -2 -3 1 0
-8232 -8234 -10261 -3 -2 1 0
-8232 -8235 -10261 -3 1 0
-8230 -8233 -10262 -1 2 0
-8230 -8235 -10262 -1 -3 2 0
-8232 -8233 -10262 -3 -1 2 0
-8232 -8235 -10262 -3 2 0
-8230 -8233 -10263 -1 3 0
-8230 -8234 -10263 -1 -2 3 0
-8231 -8233 -10263 -2 -1 3 0
-8231 -8234 -10263 -2 3 0
-8237 -8240 -10264 -2 1 0
-8237 -8241 -10264 -2 -3 1 0
-8238 -8240 -10264 -3 -2 1 0
-8238 -8241 -10264 -3 1 0
-8236 -8239 -10265 -1 2 0
-8236 -8241 -10265 -1 -3 2 0
-8238 -8239 -10265 -3 -1 2 0
-8238 -8241 -10265 -3 2 0
-8236 -8239 -10266 -1 3 0
-8236 -8240 -10266 -1 -2 3 0
-8237 -8239 -10266 -2 -1 3 0
-8237 -8240 -10266 -2 3 0
-8243 -8246 -10267 -2 1 0
-8243 -8247 -10267 -2 -3 1 0
-8244 -8246 -10267 -3 -2 1 0
-8244 -8247 -10267 -3 1 0
-8242 -8245 -10268 -1 2 0
-8242 -8247 -10268 -1 -3 2 0
-8244 -8245 -10268 -3 -1 2 0
-8244 -8247 -10268 -3 2 0
-8242 -8245 -10269 -1 3 0
-8242 -8246 -10269 -1 -2 3 0
-8243 -8245 -10269 -2 -1 3 0
-8243 -8246 -10269 -2 3 0
-8249 -8252 -10270 -2 1 0
-8249 -8253 -10270 -2 -3 1 0
-8250 -8252 -10270 -3 -2 1 0
-8250 -8253 -10270 -3 1 0
-8248 -8251 -10271 -1 2 0
-8248 -8253 -10271 -1 -3 2 0
-8250 -8251 -10271 -3 -1 2 0
-8250 -8253 -10271 -3 2 0
-8248 -8251 -10272 -1 3 0
-8248 -8252 -10272 -1 -2 3 0
-8249 -8251 -10272 -2 -1 3 0
-8249 -8252 -10272 -2 3 0
-8255 -8258 -10273 -2 1 0
-8255 -8259 -10273 -2 -3 1 0
-8256 -8258 -10273 -3 -2 1 0
-8256 -8259 -10273 -3 1 0
-8254 -8257 -10274 -1 2 0
-8254 -8259 -10274 -1 -3 2 0
-8256 -8257 -10274 -3 -1 2 0
-8256 -8259 -10274 -3 2 0
-8254 -8257 -10275 -1 3 0
-8254 -8258 -10275 -1 -2 3 0
-8255 -8257 -10275 -2 -1 3 0
-8255 -8258 -10275 -2 3 0
-8261 -8264 -10276 -2 1 0
-8261 -8265 -10276 -2 -3 1 0
-8262 -8264 -10276 -3 -2 1 0
-8262 -8265 -10276 -3 1 0
-8260 -8263 -10277 -1 2 0
-8260 -8265 -10277 -1 -3 2 0
-8262 -8263 -10277 -3 -1 2 0
-8262 -8265 -10277 -3 2 0
-8260 -8263 -10278 -1 3 0
-8260 -8264 -10278 -1 -2 3 0
-8261 -8263 -10278 -2 -1 3 0
-8261 -8264 -10278 -2 3 0
-8267 -8270 -10279 -2 1 0
-8267 -8271 -10279 -2 -3 1 0
-8268 -8270 -10279 -3 -2 1 0
-8268 -8271 -10279 -3 1 0
-8266 -8269 -10280 -1 2 0
-8266 -8271 -10280 -1 -3 2 0
-8268 -8269 -10280 -3 -1 2 0
-8268 -8271 -10280 -3 2 0
-8266 -8269 -10281 -1 3 0
-8266 -8270 -10281 -1 -2 3 0
-8267 -8269 -10281 -2 -1 3 0
-8267 -8270 -10281 -2 3 0
-8273 -8276 -10282 -2 1 0
-8273 -8277 -10282 -2 -3 1 0
-8274 -8276 -10282 -3 -2 1 0
-8274 -8277 -10282 -3 1 0
-8272 -8275 -10283 -1 2 0
-8272 -8277 -10283 -1 -3 2 0
-8274 -8275 -10283 -3 -1 2 0
-8274 -8277 -10283 -3 2 0
-8272 -8275 -10284 -1 3 0
-8272 -8276 -10284 -1 -2 3 0
-8273 -8275 -10284 -2 -1 3 0
-8273 -8276 -10284 -2 3 0
-8279 -8282 -10285 -2 1 0
-8279 -8283 -10285 -2 -3 1 0
-8280 -8282 -10285 -3 -2 1 0
-8280 -8283 -10285 -3 1 0
-8278 -8281 -10286 -1 2 0
-8278 -8283 -10286 -1 -3 2 0
-8280 -8281 -10286 -3 -1 2 0
-8280 -8283 -10286 -3 2 0
-8278 -8281 -10287 -1 3 0
-8278 -8282 -10287 -1 -2 3 0
-8279 -8281 -10287 -2 -1 3 0
-8279 -8282 -10287 -2 3 0
-8285 -8288 -10288 -2 1 0
-8285 -8289 -10288 -2 -3 1 0
-8286 -8288 -10288 -3 -2 1 0
-8286 -8289 -10288 -3 1 0
-8284 -8287 -10289 -1 2 0
-8284 -8289 -10289 -1 -3 2 0
-8286 -8287 -10289 -3 -1 2 0
-8286 -8289 -10289 -3 2 0
-8284 -8287 -10290 -1 3 0
-8284 -8288 -10290 -1 -2 3 0
-8285 -8287 -10290 -2 -1 3 0
-8285 -8288 -10290 -2 3 0
-8291 -8294 -10291 -2 1 0
-8291 -8295 -10291 -2 -3 1 0
-8292 -8294 -10291 -3 -2 1 0
-8292 -8295 -10291 -3 1 0
-8290 -8293 -10292 -1 2 0
-8290 -8295 -10292 -1 -3 2 0
-8292 -8293 -10292 -3 -1 2 0
-8292 -8295 -10292 -3 2 0
-8290 -8293 -10293 -1 3 0
-8290 -8294 -10293 -1 -2 3 0
-8291 -8293 -10293 -2 -1 3 0
-8291 -8294 -10293 -2 3 0
-8297 -8300 -10294 -2 1 0
-8297 -8301 -10294 -2 -3 1 0
-8298 -8300 -10294 -3 -2 1 0
-8298 -8301 -10294 -3 1 0
-8296 -8299 -10295 -1 2 0
-8296 -8301 -10295 -1 -3 2 0
-8298 -8299 -10295 -3 -1 2 0
-8298 -8301 -10295 -3 2 0
-8296 -8299 -10296 -1 3 0
-8296 -8300 -10296 -1 -2 3 0
-8297 -8299 -10296 -2 -1 3 0
-8297 -8300 -10296 -2 3 0
-8303 -8306 -10297 -2 1 0
-8303 -8307 -10297 -2 -3 1 0
-8304 -8306 -10297 -3 -2 1 0
-8304 -8307 -10297 -3 1 0
-8302 -8305 -10298 -1 2 0
-8302 -8307 -10298 -1 -3 2 0
-8304 -8305 -10298 -3 -1 2 0
-8304 -8307 -10298 -3 2 0
-8302 -8305 -10299 -1 3 0
-8302 -8306 -10299 -1 -2 3 0
-8303 -8305 -10299 -2 -1 3 0
-8303 -8306 -10299 -2 3 0
-8309 -8312 -10300 -2 1 0
-8309 -8313 -10300 -2 -3 1 0
-8310 -8312 -10300 -3 -2 1 0
-8310 -8313 -10300 -3 1 0
-8308 -8311 -10301 -1 2 0
-8308 -8313 -10301 -1 -3 2 0
-8310 -8311 -10301 -3 -1 2 0
-8310 -8313 -10301 -3 2 0
-8308 -8311 -10302 -1 3 0
-8308 -8312 -10302 -1 -2 3 0
-8309 -8311 -10302 -2 -1 3 0
-8309 -8312 -10302 -2 3 0
-8315 -8318 -10303 -2 1 0
-8315 -8319 -10303 -2 -3 1 0
-8316 -8318 -10303 -3 -2 1 0
-8316 -8319 -10303 -3 1 0
-8314 -8317 -10304 -1 2 0
-8314 -8319 -10304 -1 -3 2 0
-8316 -8317 -10304 -3 -1 2 0
-8316 -8319 -10304 -3 2 0
-8314 -8317 -10305 -1 3 0
-8314 -8318 -10305 -1 -2 3 0
-8315 -8317 -10305 -2 -1 3 0
-8315 -8318 -10305 -2 3 0
-8321 -8324 -10306 -2 1 0
-8321 -8325 -10306 -2 -3 1 0
-8322 -8324 -10306 -3 -2 1 0
-8322 -8325 -10306 -3 1 0
-8320 -8323 -10307 -1 2 0
-8320 -8325 -10307 -1 -3 2 0
-8322 -8323 -10307 -3 -1 2 0
-8322 -8325 -10307 -3 2 0
-8320 -8323 -10308 -1 3 0
-8320 -8324 -10308 -1 -2 3 0
-8321 -8323 -10308 -2 -1 3 0
-8321 -8324 -10308 -2 3 0
-8327 -8330 -10309 -2 1 0
-8327 -8331 -10309 -2 -3 1 0
-8328 -8330 -10309 -3 -2 1 0
-8328 -8331 -10309 -3 1 0
-8326 -8329 -10310 -1 2 0
-8326 -8331 -10310 -1 -3 2 0
-8328 -8329 -10310 -3 -1 2 0
-8328 -8331 -10310 -3 2 0
-8326 -8329 -10311 -1 3 0
-8326 -8330 -10311 -1 -2 3 0
-8327 -8329 -10311 -2 -1 3 0
-8327 -8330 -10311 -2 3 0
-8333 -8336 -10312 -2 1 0
-8333 -8337 -10312 -2 -3 1 0
-8334 -8336 -10312 -3 -2 1 0
-8334 -8337 -10312 -3 1 0
-8332 -8335 -10313 -1 2 0
-8332 -8337 -10313 -1 -3 2 0
-8334 -8335 -10313 -3 -1 2 0
-8334 -8337 -10313 -3 2 0
-8332 -8335 -10314 -1 3 0
-8332 -8336 -10314 -1 -2 3 0
-8333 -8335 -10314 -2 -1 3 0
-8333 -8336 -10314 -2 3 0
-8339 -8342 -10315 -2 1 0
-8339 -8343 -10315 -2 -3 1 0
-8340 -8342 -10315 -3 -2 1 0
-8340 -8343 -10315 -3 1 0
-8338 -8341 -10316 -1 2 0
-8338 -8343 -10316 -1 -3 2 0
-8340 -8341 -10316 -3 -1 2 0
-8340 -8343 -10316 -3 2 0
-8338 -8341 -10317 -1 3 0
-8338 -8342 -10317 -1 -2 3 0
-8339 -8341 -10317 -2 -1 3 0
-8339 -8342 -10317 -2 3 0
-8345 -8348 -10318 -2 1 0
-8345 -8349 -10318 -2 -3 1 0
-8346 -8348 -10318 -3 -2 1 0
-8346 -8349 -10318 -3 1 0
-8344 -8347 -10319 -1 2 0
-8344 -8349 -10319 -1 -3 2 0
-8346 -8347 -10319 -3 -1 2 0
-8346 -8349 -10319 -3 2 0
-8344 -8347 -10320 -1 3 0
-8344 -8348 -10320 -1 -2 3 0
-8345 -8347 -10320 -2 -1 3 0
-8345 -8348 -10320 -2 3 0
-8351 -8354 -10321 -2 1 0
-8351 -8355 -10321 -2 -3 1 0
-8352 -8354 -10321 -3 -2 1 0
-8352 -8355 -10321 -3 1 0
-8350 -8353 -10322 -1 2 0
-8350 -8355 -10322 -1 -3 2 0
-8352 -8353 -10322 -3 -1 2 0
-8352 -8355 -10322 -3 2 0
-8350 -8353 -10323 -1 3 0
-8350 -8354 -10323 -1 -2 3 0
-8351 -8353 -10323 -2 -1 3 0
-8351 -8354 -10323 -2 3 0
-8357 -8360 -10324 -2 1 0
-8357 -8361 -10324 -2 -3 1 0
-8358 -8360 -10324 -3 -2 1 0
-8358 -8361 -10324 -3 1 0
-8356 -8359 -10325 -1 2 0
-8356 -8361 -10325 -1 -3 2 0
-8358 -8359 -10325 -3 -1 2 0
-8358 -8361 -10325 -3 2 0
-8356 -8359 -10326 -1 3 0
-8356 -8360 -10326 -1 -2 3 0
-8357 -8359 -10326 -2 -1 3 0
-8357 -8360 -10326 -2 3 0
-8363 -8366 -10327 -2 1 0
-8363 -8367 -10327 -2 -3 1 0
-8364 -8366 -10327 -3 -2 1 0
-8364 -8367 -10327 -3 1 0
-8362 -8365 -10328 -1 2 0
-8362 -8367 -10328 -1 -3 2 0
-8364 -8365 -10328 -3 -1 2 0
-8364 -8367 -10328 -3 2 0
-8362 -8365 -10329 -1 3 0
-8362 -8366 -10329 -1 -2 3 0
-8363 -8365 -10329 -2 -1 3 0
-8363 -8366 -10329 -2 3 0
-8369 -8372 -10330 -2 1 0
-8369 -8373 -10330 -2 -3 1 0
-8370 -8372 -10330 -3 -2 1 0
-8370 -8373 -10330 -3 1 0
-8368 -8371 -10331 -1 2 0
-8368 -8373 -10331 -1 -3 2 0
-8370 -8371 -10331 -3 -1 2 0
-8370 -8373 -10331 -3 2 0
-8368 -8371 -10332 -1 3 0
-8368 -8372 -10332 -1 -2 3 0
-8369 -8371 -10332 -2 -1 3 0
-8369 -8372 -10332 -2 3 0
-8375 -8378 -10333 -2 1 0
-8375 -8379 -10333 -2 -3 1 0
-8376 -8378 -10333 -3 -2 1 0
-8376 -8379 -10333 -3 1 0
-8374 -8377 -10334 -1 2 0
-8374 -8379 -10334 -1 -3 2 0
-8376 -8377 -10334 -3 -1 2 0
-8376 -8379 -10334 -3 2 0
-8374 -8377 -10335 -1 3 0
-8374 -8378 -10335 -1 -2 3 0
-8375 -8377 -10335 -2 -1 3 0
-8375 -8378 -10335 -2 3 0
-8381 -8384 -10336 -2 1 0
-8381 -8385 -10336 -2 -3 1 0
-8382 -8384 -10336 -3 -2 1 0
-8382 -8385 -10336 -3 1 0
-8380 -8383 -10337 -1 2 0
-8380 -8385 -10337 -1 -3 2 0
-8382 -8383 -10337 -3 -1 2 0
-8382 -8385 -10337 -3 2 0
-8380 -8383 -10338 -1 3 0
-8380 -8384 -10338 -1 -2 3 0
-8381 -8383 -10338 -2 -1 3 0
-8381 -8384 -10338 -2 3 0
-8387 -8390 -10339 -2 1 0
-8387 -8391 -10339 -2 -3 1 0
-8388 -8390 -10339 -3 -2 1 0
-8388 -8391 -10339 -3 1 0
-8386 -8389 -10340 -1 2 0
-8386 -8391 -10340 -1 -3 2 0
-8388 -8389 -10340 -3 -1 2 0
-8388 -8391 -10340 -3 2 0
-8386 -8389 -10341 -1 3 0
-8386 -8390 -10341 -1 -2 3 0
-8387 -8389 -10341 -2 -1 3 0
-8387 -8390 -10341 -2 3 0
-8393 -8396 -10342 -2 1 0
-8393 -8397 -10342 -2 -3 1 0
-8394 -8396 -10342 -3 -2 1 0
-8394 -8397 -10342 -3 1 0
-8392 -8395 -10343 -1 2 0
-8392 -8397 -10343 -1 -3 2 0
-8394 -8395 -10343 -3 -1 2 0
-8394 -8397 -10343 -3 2 0
-8392 -8395 -10344 -1 3 0
-8392 -8396 -10344 -1 -2 3 0
-8393 -8395 -10344 -2 -1 3 0
-8393 -8396 -10344 -2 3 0
-8399 -8402 -10345 -2 1 0
-8399 -8403 -10345 -2 -3 1 0
-8400 -8402 -10345 -3 -2 1 0
-8400 -8403 -10345 -3 1 0
-8398 -8401 -10346 -1 2 0
-8398 -8403 -10346 -1 -3 2 0
-8400 -8401 -10346 -3 -1 2 0
-8400 -8403 -10346 -3 2 0
-8398 -8401 -10347 -1 3 0
-8398 -8402 -10347 -1 -2 3 0
-8399 -8401 -10347 -2 -1 3 0
-8399 -8402 -10347 -2 3 0
-8405 -8408 -10348 -2 1 0
-8405 -8409 -10348 -2 -3 1 0
-8406 -8408 -10348 -3 -2 1 0
-8406 -8409 -10348 -3 1 0
-8404 -8407 -10349 -1 2 0
-8404 -8409 -10349 -1 -3 2 0
-8406 -8407 -10349 -3 -1 2 0
-8406 -8409 -10349 -3 2 0
-8404 -8407 -10350 -1 3 0
-8404 -8408 -10350 -1 -2 3 0
-8405 -8407 -10350 -2 -1 3 0
-8405 -8408 -10350 -2 3 0
-8411 -8414 -10351 -2 1 0
-8411 -8415 -10351 -2 -3 1 0
-8412 -8414 -10351 -3 -2 1 0
-8412 -8415 -10351 -3 1 0
-8410 -8413 -10352 -1 2 0
-8410 -8415 -10352 -1 -3 2 0
-8412 -8413 -10352 -3 -1 2 0
-8412 -8415 -10352 -3 2 0
-8410 -8413 -10353 -1 3 0
-8410 -8414 -10353 -1 -2 3 0
-8411 -8413 -10353 -2 -1 3 0
-8411 -8414 -10353 -2 3 0
-8417 -8420 -10354 -2 1 0
-8417 -8421 -10354 -2 -3 1 0
-8418 -8420 -10354 -3 -2 1 0
-8418 -8421 -10354 -3 1 0
-8416 -8419 -10355 -1 2 0
-8416 -8421 -10355 -1 -3 2 0
-8418 -8419 -10355 -3 -1 2 0
-8418 -8421 -10355 -3 2 0
-8416 -8419 -10356 -1 3 0
-8416 -8420 -10356 -1 -2 3 0
-8417 -8419 -10356 -2 -1 3 0
-8417 -8420 -10356 -2 3 0
-8423 -8426 -10357 -2 1 0
-8423 -8427 -10357 -2 -3 1 0
-8424 -8426 -10357 -3 -2 1 0
-8424 -8427 -10357 -3 1 0
-8422 -8425 -10358 -1 2 0
-8422 -8427 -10358 -1 -3 2 0
-8424 -8425 -10358 -3 -1 2 0
-8424 -8427 -10358 -3 2 0
-8422 -8425 -10359 -1 3 0
-8422 -8426 -10359 -1 -2 3 0
-8423 -8425 -10359 -2 -1 3 0
-8423 -8426 -10359 -2 3 0
-8429 -8432 -10360 -2 1 0
-8429 -8433 -10360 -2 -3 1 0
-8430 -8432 -10360 -3 -2 1 0
-8430 -8433 -10360 -3 1 0
-8428 -8431 -10361 -1 2 0
-8428 -8433 -10361 -1 -3 2 0
-8430 -8431 -10361 -3 -1 2 0
-8430 -8433 -10361 -3 2 0
-8428 -8431 -10362 -1 3 0
-8428 -8432 -10362 -1 -2 3 0
-8429 -8431 -10362 -2 -1 3 0
-8429 -8432 -10362 -2 3 0
-8435 -8438 -10363 -2 1 0
-8435 -8439 -10363 -2 -3 1 0
-8436 -8438 -10363 -3 -2 1 0
-8436 -8439 -10363 -3 1 0
-8434 -8437 -10364 -1 2 0
-8434 -8439 -10364 -1 -3 2 0
-8436 -8437 -10364 -3 -1 2 0
-8436 -8439 -10364 -3 2 0
-8434 -8437 -10365 -1 3 0
-8434 -8438 -10365 -1 -2 3 0
-8435 -8437 -10365 -2 -1 3 0
-8435 -8438 -10365 -2 3 0
-8441 -8444 -10366 -2 1 0
-8441 -8445 -10366 -2 -3 1 0
-8442 -8444 -10366 -3 -2 1 0
-8442 -8445 -10366 -3 1 0
-8440 -8443 -10367 -1 2 0
-8440 -8445 -10367 -1 -3 2 0
-8442 -8443 -10367 -3 -1 2 0
-8442 -8445 -10367 -3 2 0
-8440 -8443 -10368 -1 3 0
-8440 -8444 -10368 -1 -2 3 0
-8441 -8443 -10368 -2 -1 3 0
-8441 -8444 -10368 -2 3 0
-8447 -8450 -10369 -2 1 0
-8447 -8451 -10369 -2 -3 1 0
-8448 -8450 -10369 -3 -2 1 0
-8448 -8451 -10369 -3 1 0
-8446 -8449 -10370 -1 2 0
-8446 -8451 -10370 -1 -3 2 0
-8448 -8449 -10370 -3 -1 2 0
-8448 -8451 -10370 -3 2 0
-8446 -8449 -10371 -1 3 0
-8446 -8450 -10371 -1 -2 3 0
-8447 -8449 -10371 -2 -1 3 0
-8447 -8450 -10371 -2 3 0
-8453 -8456 -10372 -2 1 0
-8453 -8457 -10372 -2 -3 1 0
-8454 -8456 -10372 -3 -2 1 0
-8454 -8457 -10372 -3 1 0
-8452 -8455 -10373 -1 2 0
-8452 -8457 -10373 -1 -3 2 0
-8454 -8455 -10373 -3 -1 2 0
-8454 -8457 -10373 -3 2 0
-8452 -8455 -10374 -1 3 0
-8452 -8456 -10374 -1 -2 3 0
-8453 -8455 -10374 -2 -1 3 0
-8453 -8456 -10374 -2 3 0
-8459 -8462 -10375 -2 1 0
-8459 -8463 -10375 -2 -3 1 0
-8460 -8462 -10375 -3 -2 1 0
-8460 -8463 -10375 -3 1 0
-8458 -8461 -10376 -1 2 0
-8458 -8463 -10376 -1 -3 2 0
-8460 -8461 -10376 -3 -1 2 0
-8460 -8463 -10376 -3 2 0
-8458 -8461 -10377 -1 3 0
-8458 -8462 -10377 -1 -2 3 0
-8459 -8461 -10377 -2 -1 3 0
-8459 -8462 -10377 -2 3 0
-8465 -8468 -10378 -2 1 0
-8465 -8469 -10378 -2 -3 1 0
-8466 -8468 -10378 -3 -2 1 0
-8466 -8469 -10378 -3 1 0
-8464 -8467 -10379 -1 2 0
-8464 -8469 -10379 -1 -3 2 0
-8466 -8467 -10379 -3 -1 2 0
-8466 -8469 -10379 -3 2 0
-8464 -8467 -10380 -1 3 0
-8464 -8468 -10380 -1 -2 3 0
-8465 -8467 -10380 -2 -1 3 0
-8465 -8468 -10380 -2 3 0
-8471 -8474 -10381 -2 1 0
-8471 -8475 -10381 -2 -3 1 0
-8472 -8474 -10381 -3 -2 1 0
-8472 -8475 -10381 -3 1 0
-8470 -8473 -10382 -1 2 0
-8470 -8475 -10382 -1 -3 2 0
-8472 -8473 -10382 -3 -1 2 0
-8472 -8475 -10382 -3 2 0
-8470 -8473 -10383 -1 3 0
-8470 -8474 -10383 -1 -2 3 0
-8471 -8473 -10383 -2 -1 3 0
-8471 -8474 -10383 -2 3 0
-8477 -8480 -10384 -2 1 0
-8477 -8481 -10384 -2 -3 1 0
-8478 -8480 -10384 -3 -2 1 0
-8478 -8481 -10384 -3 1 0
-8476 -8479 -10385 -1 2 0
-8476 -8481 -10385 -1 -3 2 0
-8478 -8479 -10385 -3 -1 2 0
-8478 -8481 -10385 -3 2 0
-8476 -8479 -10386 -1 3 0
-8476 -8480 -10386 -1 -2 3 0
-8477 -8479 -10386 -2 -1 3 0
-8477 -8480 -10386 -2 3 0
-8483 -8486 -10387 -2 1 0
-8483 -8487 -10387 -2 -3 1 0
-8484 -8486 -10387 -3 -2 1 0
-8484 -8487 -10387 -3 1 0
-8482 -8485 -10388 -1 2 0
-8482 -8487 -10388 -1 -3 2 0
-8484 -8485 -10388 -3 -1 2 0
-8484 -8487 -10388 -3 2 0
-8482 -8485 -10389 -1 3 0
-8482 -8486 -10389 -1 -2 3 0
-8483 -8485 -10389 -2 -1 3 0
-8483 -8486 -10389 -2 3 0
-8489 -8492 -10390 -2 1 0
-8489 -8493 -10390 -2 -3 1 0
-8490 -8492 -10390 -3 -2 1 0
-8490 -8493 -10390 -3 1 0
-8488 -8491 -10391 -1 2 0
-8488 -8493 -10391 -1 -3 2 0
-8490 -8491 -10391 -3 -1 2 0
-8490 -8493 -10391 -3 2 0
-8488 -8491 -10392 -1 3 0
-8488 -8492 -10392 -1 -2 3 0
-8489 -8491 -10392 -2 -1 3 0
-8489 -8492 -10392 -2 3 0
-8495 -8498 -10393 -2 1 0
-8495 -8499 -10393 -2 -3 1 0
-8496 -8498 -10393 -3 -2 1 0
-8496 -8499 -10393 -3 1 0
-8494 -8497 -10394 -1 2 0
-8494 -8499 -10394 -1 -3 2 0
-8496 -8497 -10394 -3 -1 2 0
-8496 -8499 -10394 -3 2 0
-8494 -8497 -10395 -1 3 0
-8494 -8498 -10395 -1 -2 3 0
-8495 -8497 -10395 -2 -1 3 0
-8495 -8498 -10395 -2 3 0
-8501 -8504 -10396 -2 1 0
-8501 -8505 -10396 -2 -3 1 0
-8502 -8504 -10396 -3 -2 1 0
-8502 -8505 -10396 -3 1 0
-8500 -8503 -10397 -1 2 0
-8500 -8505 -10397 -1 -3 2 0
-8502 -8503 -10397 -3 -1 2 0
-8502 -8505 -10397 -3 2 0
-8500 -8503 -10398 -1 3 0
-8500 -8504 -10398 -1 -2 3 0
-8501 -8503 -10398 -2 -1 3 0
-8501 -8504 -10398 -2 3 0
-8507 -8510 -10399 -2 1 0
-8507 -8511 -10399 -2 -3 1 0
-8508 -8510 -10399 -3 -2 1 0
-8508 -8511 -10399 -3 1 0
-8506 -8509 -10400 -1 2 0
-8506 -8511 -10400 -1 -3 2 0
-8508 -8509 -10400 -3 -1 2 0
-8508 -8511 -10400 -3 2 0
-8506 -8509 -10401 -1 3 0
-8506 -8510 -10401 -1 -2 3 0
-8507 -8509 -10401 -2 -1 3 0
-8507 -8510 -10401 -2 3 0
-8513 -8516 -10402 -2 1 0
-8513 -8517 -10402 -2 -3 1 0
-8514 -8516 -10402 -3 -2 1 0
-8514 -8517 -10402 -3 1 0
-8512 -8515 -10403 -1 2 0
-8512 -8517 -10403 -1 -3 2 0
-8514 -8515 -10403 -3 -1 2 0
-8514 -8517 -10403 -3 2 0
-8512 -8515 -10404 -1 3 0
-8512 -8516 -10404 -1 -2 3 0
-8513 -8515 -10404 -2 -1 3 0
-8513 -8516 -10404 -2 3 0
-8519 -8522 -10405 -2 1 0
-8519 -8523 -10405 -2 -3 1 0
-8520 -8522 -10405 -3 -2 1 0
-8520 -8523 -10405 -3 1 0
-8518 -8521 -10406 -1 2 0
-8518 -8523 -10406 -1 -3 2 0
-8520 -8521 -10406 -3 -1 2 0
-8520 -8523 -10406 -3 2 0
-8518 -8521 -10407 -1 3 0
-8518 -8522 -10407 -1 -2 3 0
-8519 -8521 -10407 -2 -1 3 0
-8519 -8522 -10407 -2 3 0
-8525 -8528 -10408 -2 1 0
-8525 -8529 -10408 -2 -3 1 0
-8526 -8528 -10408 -3 -2 1 0
-8526 -8529 -10408 -3 1 0
-8524 -8527 -10409 -1 2 0
-8524 -8529 -10409 -1 -3 2 0
-8526 -8527 -10409 -3 -1 2 0
-8526 -8529 -10409 -3 2 0
-8524 -8527 -10410 -1 3 0
-8524 -8528 -10410 -1 -2 3 0
-8525 -8527 -10410 -2 -1 3 0
-8525 -8528 -10410 -2 3 0
-8531 -8534 -10411 -2 1 0
-8531 -8535 -10411 -2 -3 1 0
-8532 -8534 -10411 -3 -2 1 0
-8532 -8535 -10411 -3 1 0
-8530 -8533 -10412 -1 2 0
-8530 -8535 -10412 -1 -3 2 0
-8532 -8533 -10412 -3 -1 2 0
-8532 -8535 -10412 -3 2 0
-8530 -8533 -10413 -1 3 0
-8530 -8534 -10413 -1 -2 3 0
-8531 -8533 -10413 -2 -1 3 0
-8531 -8534 -10413 -2 3 0
-8537 -8540 -10414 -2 1 0
-8537 -8541 -10414 -2 -3 1 0
-8538 -8540 -10414 -3 -2 1 0
-8538 -8541 -10414 -3 1 0
-8536 -8539 -10415 -1 2 0
-8536 -8541 -10415 -1 -3 2 0
-8538 -8539 -10415 -3 -1 2 0
-8538 -8541 -10415 -3 2 0
-8536 -8539 -10416 -1 3 0
-8536 -8540 -10416 -1 -2 3 0
-8537 -8539 -10416 -2 -1 3 0
-8537 -8540 -10416 -2 3 0
-8543 -8546 -10417 -2 1 0
-8543 -8547 -10417 -2 -3 1 0
-8544 -8546 -10417 -3 -2 1 0
-8544 -8547 -10417 -3 1 0
-8542 -8545 -10418 -1 2 0
-8542 -8547 -10418 -1 -3 2 0
-8544 -8545 -10418 -3 -1 2 0
-8544 -8547 -10418 -3 2 0
-8542 -8545 -10419 -1 3 0
-8542 -8546 -10419 -1 -2 3 0
-8543 -8545 -10419 -2 -1 3 0
-8543 -8546 -10419 -2 3 0
-8549 -8552 -10420 -2 1 0
-8549 -8553 -10420 -2 -3 1 0
-8550 -8552 -10420 -3 -2 1 0
-8550 -8553 -10420 -3 1 0
-8548 -8551 -10421 -1 2 0
-8548 -8553 -10421 -1 -3 2 0
-8550 -8551 -10421 -3 -1 2 0
-8550 -8553 -10421 -3 2 0
-8548 -8551 -10422 -1 3 0
-8548 -8552 -10422 -1 -2 3 0
-8549 -8551 -10422 -2 -1 3 0
-8549 -8552 -10422 -2 3 0
-8555 -8558 -10423 -2 1 0
-8555 -8559 -10423 -2 -3 1 0
-8556 -8558 -10423 -3 -2 1 0
-8556 -8559 -10423 -3 1 0
-8554 -8557 -10424 -1 2 0
-8554 -8559 -10424 -1 -3 2 0
-8556 -8557 -10424 -3 -1 2 0
-8556 -8559 -10424 -3 2 0
-8554 -8557 -10425 -1 3 0
-8554 -8558 -10425 -1 -2 3 0
-8555 -8557 -10425 -2 -1 3 0
-8555 -8558 -10425 -2 3 0
-8561 -8564 -10426 -2 1 0
-8561 -8565 -10426 -2 -3 1 0
-8562 -8564 -10426 -3 -2 1 0
-8562 -8565 -10426 -3 1 0
-8560 -8563 -10427 -1 2 0
-8560 -8565 -10427 -1 -3 2 0
-8562 -8563 -10427 -3 -1 2 0
-8562 -8565 -10427 -3 2 0
-8560 -8563 -10428 -1 3 0
-8560 -8564 -10428 -1 -2 3 0
-8561 -8563 -10428 -2 -1 3 0
-8561 -8564 -10428 -2 3 0
-8567 -8570 -10429 -2 1 0
-8567 -8571 -10429 -2 -3 1 0
-8568 -8570 -10429 -3 -2 1 0
-8568 -8571 -10429 -3 1 0
-8566 -8569 -10430 -1 2 0
-8566 -8571 -10430 -1 -3 2 0
-8568 -8569 -10430 -3 -1 2 0
-8568 -8571 -10430 -3 2 0
-8566 -8569 -10431 -1 3 0
-8566 -8570 -10431 -1 -2 3 0
-8567 -8569 -10431 -2 -1 3 0
-8567 -8570 -10431 -2 3 0
-8573 -8576 -10432 -2 1 0
-8573 -8577 -10432 -2 -3 1 0
-8574 -8576 -10432 -3 -2 1 0
-8574 -8577 -10432 -3 1 0
-8572 -8575 -10433 -1 2 0
-8572 -8577 -10433 -1 -3 2 0
-8574 -8575 -10433 -3 -1 2 0
-8574 -8577 -10433 -3 2 0
-8572 -8575 -10434 -1 3 0
-8572 -8576 -10434 -1 -2 3 0
-8573 -8575 -10434 -2 -1 3 0
-8573 -8576 -10434 -2 3 0
-8579 -8582 -10435 -2 1 0
-8579 -8583 -10435 -2 -3 1 0
-8580 -8582 -10435 -3 -2 1 0
-8580 -8583 -10435 -3 1 0
-8578 -8581 -10436 -1 2 0
-8578 -8583 -10436 -1 -3 2 0
-8580 -8581 -10436 -3 -1 2 0
-8580 -8583 -10436 -3 2 0
-8578 -8581 -10437 -1 3 0
-8578 -8582 -10437 -1 -2 3 0
-8579 -8581 -10437 -2 -1 3 0
-8579 -8582 -10437 -2 3 0
-8585 -8588 -10438 -2 1 0
-8585 -8589 -10438 -2 -3 1 0
-8586 -8588 -10438 -3 -2 1 0
-8586 -8589 -10438 -3 1 0
-8584 -8587 -10439 -1 2 0
-8584 -8589 -10439 -1 -3 2 0
-8586 -8587 -10439 -3 -1 2 0
-8586 -8589 -10439 -3 2 0
-8584 -8587 -10440 -1 3 0
-8584 -8588 -10440 -1 -2 3 0
-8585 -8587 -10440 -2 -1 3 0
-8585 -8588 -10440 -2 3 0
-8591 -8594 -10441 -2 1 0
-8591 -8595 -10441 -2 -3 1 0
-8592 -8594 -10441 -3 -2 1 0
-8592 -8595 -10441 -3 1 0
-8590 -8593 -10442 -1 2 0
-8590 -8595 -10442 -1 -3 2 0
-8592 -8593 -10442 -3 -1 2 0
-8592 -8595 -10442 -3 2 0
-8590 -8593 -10443 -1 3 0
-8590 -8594 -10443 -1 -2 3 0
-8591 -8593 -10443 -2 -1 3 0
-8591 -8594 -10443 -2 3 0
-8597 -8600 -10444 -2 1 0
-8597 -8601 -10444 -2 -3 1 0
-8598 -8600 -10444 -3 -2 1 0
-8598 -8601 -10444 -3 1 0
-8596 -8599 -10445 -1 2 0
-8596 -8601 -10445 -1 -3 2 0
-8598 -8599 -10445 -3 -1 2 0
-8598 -8601 -10445 -3 2 0
-8596 -8599 -10446 -1 3 0
-8596 -8600 -10446 -1 -2 3 0
-8597 -8599 -10446 -2 -1 3 0
-8597 -8600 -10446 -2 3 0
-8603 -8606 -10447 -2 1 0
-8603 -8607 -10447 -2 -3 1 0
-8604 -8606 -10447 -3 -2 1 0
-8604 -8607 -10447 -3 1 0
-8602 -8605 -10448 -1 2 0
-8602 -8607 -10448 -1 -3 2 0
-8604 -8605 -10448 -3 -1 2 0
-8604 -8607 -10448 -3 2 0
-8602 -8605 -10449 -1 3 0
-8602 -8606 -10449 -1 -2 3 0
-8603 -8605 -10449 -2 -1 3 0
-8603 -8606 -10449 -2 3 0
-8609 -8612 -10450 -2 1 0
-8609 -8613 -10450 -2 -3 1 0
-8610 -8612 -10450 -3 -2 1 0
-8610 -8613 -10450 -3 1 0
-8608 -8611 -10451 -1 2 0
-8608 -8613 -10451 -1 -3 2 0
-8610 -8611 -10451 -3 -1 2 0
-8610 -8613 -10451 -3 2 0
-8608 -8611 -10452 -1 3 0
-8608 -8612 -10452 -1 -2 3 0
-8609 -8611 -10452 -2 -1 3 0
-8609 -8612 -10452 -2 3 0
-8615 -8618 -10453 -2 1 0
-8615 -8619 -10453 -2 -3 1 0
-8616 -8618 -10453 -3 -2 1 0
-8616 -8619 -10453 -3 1 0
-8614 -8617 -10454 -1 2 0
-8614 -8619 -10454 -1 -3 2 0
-8616 -8617 -10454 -3 -1 2 0
-8616 -8619 -10454 -3 2 0
-8614 -8617 -10455 -1 3 0
-8614 -8618 -10455 -1 -2 3 0
-8615 -8617 -10455 -2 -1 3 0
-8615 -8618 -10455 -2 3 0
-8621 -8624 -10456 -2 1 0
-8621 -8625 -10456 -2 -3 1 0
-8622 -8624 -10456 -3 -2 1 0
-8622 -8625 -10456 -3 1 0
-8620 -8623 -10457 -1 2 0
-8620 -8625 -10457 -1 -3 2 0
-8622 -8623 -10457 -3 -1 2 0
-8622 -8625 -10457 -3 2 0
-8620 -8623 -10458 -1 3 0
-8620 -8624 -10458 -1 -2 3 0
-8621 -8623 -10458 -2 -1 3 0
-8621 -8624 -10458 -2 3 0
-8627 -8630 -10459 -2 1 0
-8627 -8631 -10459 -2 -3 1 0
-8628 -8630 -10459 -3 -2 1 0
-8628 -8631 -10459 -3 1 0
-8626 -8629 -10460 -1 2 0
-8626 -8631 -10460 -1 -3 2 0
-8628 -8629 -10460 -3 -1 2 0
-8628 -8631 -10460 -3 2 0
-8626 -8629 -10461 -1 3 0
-8626 -8630 -10461 -1 -2 3 0
-8627 -8629 -10461 -2 -1 3 0
-8627 -8630 -10461 -2 3 0
-8633 -8636 -10462 -2 1 0
-8633 -8637 -10462 -2 -3 1 0
-8634 -8636 -10462 -3 -2 1 0
-8634 -8637 -10462 -3 1 0
-8632 -8635 -10463 -1 2 0
-8632 -8637 -10463 -1 -3 2 0
-8634 -8635 -10463 -3 -1 2 0
-8634 -8637 -10463 -3 2 0
-8632 -8635 -10464 -1 3 0
-8632 -8636 -10464 -1 -2 3 0
-8633 -8635 -10464 -2 -1 3 0
-8633 -8636 -10464 -2 3 0
-8639 -8642 -10465 -2 1 0
-8639 -8643 -10465 -2 -3 1 0
-8640 -8642 -10465 -3 -2 1 0
-8640 -8643 -10465 -3 1 0
-8638 -8641 -10466 -1 2 0
-8638 -8643 -10466 -1 -3 2 0
-8640 -8641 -10466 -3 -1 2 0
-8640 -8643 -10466 -3 2 0
-8638 -8641 -10467 -1 3 0
-8638 -8642 -10467 -1 -2 3 0
-8639 -8641 -10467 -2 -1 3 0
-8639 -8642 -10467 -2 3 0
-8645 -8648 -10468 -2 1 0
-8645 -8649 -10468 -2 -3 1 0
-8646 -8648 -10468 -3 -2 1 0
-8646 -8649 -10468 -3 1 0
-8644 -8647 -10469 -1 2 0
-8644 -8649 -10469 -1 -3 2 0
-8646 -8647 -10469 -3 -1 2 0
-8646 -8649 -10469 -3 2 0
-8644 -8647 -10470 -1 3 0
-8644 -8648 -10470 -1 -2 3 0
-8645 -8647 -10470 -2 -1 3 0
-8645 -8648 -10470 -2 3 0
-8651 -8654 -10471 -2 1 0
-8651 -8655 -10471 -2 -3 1 0
-8652 -8654 -10471 -3 -2 1 0
-8652 -8655 -10471 -3 1 0
-8650 -8653 -10472 -1 2 0
-8650 -8655 -10472 -1 -3 2 0
-8652 -8653 -10472 -3 -1 2 0
-8652 -8655 -10472 -3 2 0
-8650 -8653 -10473 -1 3 0
-8650 -8654 -10473 -1 -2 3 0
-8651 -8653 -10473 -2 -1 3 0
-8651 -8654 -10473 -2 3 0
-8657 -8660 -10474 -2 1 0
-8657 -8661 -10474 -2 -3 1 0
-8658 -8660 -10474 -3 -2 1 0
-8658 -8661 -10474 -3 1 0
-8656 -8659 -10475 -1 2 0
-8656 -8661 -10475 -1 -3 2 0
-8658 -8659 -10475 -3 -1 2 0
-8658 -8661 -10475 -3 2 0
-8656 -8659 -10476 -1 3 0
-8656 -8660 -10476 -1 -2 3 0
-8657 -8659 -10476 -2 -1 3 0
-8657 -8660 -10476 -2 3 0
-8663 -8666 -10477 -2 1 0
-8663 -8667 -10477 -2 -3 1 0
-8664 -8666 -10477 -3 -2 1 0
-8664 -8667 -10477 -3 1 0
-8662 -8665 -10478 -1 2 0
-8662 -8667 -10478 -1 -3 2 0
-8664 -8665 -10478 -3 -1 2 0
-8664 -8667 -10478 -3 2 0
-8662 -8665 -10479 -1 3 0
-8662 -8666 -10479 -1 -2 3 0
-8663 -8665 -10479 -2 -1 3 0
-8663 -8666 -10479 -2 3 0
-8669 -8672 -10480 -2 1 0
-8669 -8673 -10480 -2 -3 1 0
-8670 -8672 -10480 -3 -2 1 0
-8670 -8673 -10480 -3 1 0
-8668 -8671 -10481 -1 2 0
-8668 -8673 -10481 -1 -3 2 0
-8670 -8671 -10481 -3 -1 2 0
-8670 -8673 -10481 -3 2 0
-8668 -8671 -10482 -1 3 0
-8668 -8672 -10482 -1 -2 3 0
-8669 -8671 -10482 -2 -1 3 0
-8669 -8672 -10482 -2 3 0
-8675 -8678 -10483 -2 1 0
-8675 -8679 -10483 -2 -3 1 0
-8676 -8678 -10483 -3 -2 1 0
-8676 -8679 -10483 -3 1 0
-8674 -8677 -10484 -1 2 0
-8674 -8679 -10484 -1 -3 2 0
-8676 -8677 -10484 -3 -1 2 0
-8676 -8679 -10484 -3 2 0
-8674 -8677 -10485 -1 3 0
-8674 -8678 -10485 -1 -2 3 0
-8675 -8677 -10485 -2 -1 3 0
-8675 -8678 -10485 -2 3 0
-8681 -8684 -10486 -2 1 0
-8681 -8685 -10486 -2 -3 1 0
-8682 -8684 -10486 -3 -2 1 0
-8682 -8685 -10486 -3 1 0
-8680 -8683 -10487 -1 2 0
-8680 -8685 -10487 -1 -3 2 0
-8682 -8683 -10487 -3 -1 2 0
-8682 -8685 -10487 -3 2 0
-8680 -8683 -10488 -1 3 0
-8680 -8684 -10488 -1 -2 3 0
-8681 -8683 -10488 -2 -1 3 0
-8681 -8684 -10488 -2 3 0
-8687 -8690 -10489 -2 1 0
-8687 -8691 -10489 -2 -3 1 0
-8688 -8690 -10489 -3 -2 1 0
-8688 -8691 -10489 -3 1 0
-8686 -8689 -10490 -1 2 0
-8686 -8691 -10490 -1 -3 2 0
-8688 -8689 -10490 -3 -1 2 0
-8688 -8691 -10490 -3 2 0
-8686 -8689 -10491 -1 3 0
-8686 -8690 -10491 -1 -2 3 0
-8687 -8689 -10491 -2 -1 3 0
-8687 -8690 -10491 -2 3 0
-8693 -8696 -10492 -2 1 0
-8693 -8697 -10492 -2 -3 1 0
-8694 -8696 -10492 -3 -2 1 0
-8694 -8697 -10492 -3 1 0
-8692 -8695 -10493 -1 2 0
-8692 -8697 -10493 -1 -3 2 0
-8694 -8695 -10493 -3 -1 2 0
-8694 -8697 -10493 -3 2 0
-8692 -8695 -10494 -1 3 0
-8692 -8696 -10494 -1 -2 3 0
-8693 -8695 -10494 -2 -1 3 0
-8693 -8696 -10494 -2 3 0
-8699 -8702 -10495 -2 1 0
-8699 -8703 -10495 -2 -3 1 0
-8700 -8702 -10495 -3 -2 1 0
-8700 -8703 -10495 -3 1 0
-8698 -8701 -10496 -1 2 0
-8698 -8703 -10496 -1 -3 2 0
-8700 -8701 -10496 -3 -1 2 0
-8700 -8703 -10496 -3 2 0
-8698 -8701 -10497 -1 3 0
-8698 -8702 -10497 -1 -2 3 0
-8699 -8701 -10497 -2 -1 3 0
-8699 -8702 -10497 -2 3 0
-8705 -8708 -10498 -2 1 0
-8705 -8709 -10498 -2 -3 1 0
-8706 -8708 -10498 -3 -2 1 0
-8706 -8709 -10498 -3 1 0
-8704 -8707 -10499 -1 2 0
-8704 -8709 -10499 -1 -3 2 0
-8706 -8707 -10499 -3 -1 2 0
-8706 -8709 -10499 -3 2 0
-8704 -8707 -10500 -1 3 0
-8704 -8708 -10500 -1 -2 3 0
-8705 -8707 -10500 -2 -1 3 0
-8705 -8708 -10500 -2 3 0
-8711 -8714 -10501 -2 1 0
-8711 -8715 -10501 -2 -3 1 0
-8712 -8714 -10501 -3 -2 1 0
-8712 -8715 -10501 -3 1 0
-8710 -8713 -10502 -1 2 0
-8710 -8715 -10502 -1 -3 2 0
-8712 -8713 -10502 -3 -1 2 0
-8712 -8715 -10502 -3 2 0
-8710 -8713 -10503 -1 3 0
-8710 -8714 -10503 -1 -2 3 0
-8711 -8713 -10503 -2 -1 3 0
-8711 -8714 -10503 -2 3 0
-8717 -8720 -10504 -2 1 0
-8717 -8721 -10504 -2 -3 1 0
-8718 -8720 -10504 -3 -2 1 0
-8718 -8721 -10504 -3 1 0
-8716 -8719 -10505 -1 2 0
-8716 -8721 -10505 -1 -3 2 0
-8718 -8719 -10505 -3 -1 2 0
-8718 -8721 -10505 -3 2 0
-8716 -8719 -10506 -1 3 0
-8716 -8720 -10506 -1 -2 3 0
-8717 -8719 -10506 -2 -1 3 0
-8717 -8720 -10506 -2 3 0
-8723 -8726 -10507 -2 1 0
-8723 -8727 -10507 -2 -3 1 0
-8724 -8726 -10507 -3 -2 1 0
-8724 -8727 -10507 -3 1 0
-8722 -8725 -10508 -1 2 0
-8722 -8727 -10508 -1 -3 2 0
-8724 -8725 -10508 -3 -1 2 0
-8724 -8727 -10508 -3 2 0
-8722 -8725 -10509 -1 3 0
-8722 -8726 -10509 -1 -2 3 0
-8723 -8725 -10509 -2 -1 3 0
-8723 -8726 -10509 -2 3 0
-8729 -8732 -10510 -2 1 0
-8729 -8733 -10510 -2 -3 1 0
-8730 -8732 -10510 -3 -2 1 0
-8730 -8733 -10510 -3 1 0
-8728 -8731 -10511 -1 2 0
-8728 -8733 -10511 -1 -3 2 0
-8730 -8731 -10511 -3 -1 2 0
-8730 -8733 -10511 -3 2 0
-8728 -8731 -10512 -1 3 0
-8728 -8732 -10512 -1 -2 3 0
-8729 -8731 -10512 -2 -1 3 0
-8729 -8732 -10512 -2 3 0
-8735 -8738 -10513 -2 1 0
-8735 -8739 -10513 -2 -3 1 0
-8736 -8738 -10513 -3 -2 1 0
-8736 -8739 -10513 -3 1 0
-8734 -8737 -10514 -1 2 0
-8734 -8739 -10514 -1 -3 2 0
-8736 -8737 -10514 -3 -1 2 0
-8736 -8739 -10514 -3 2 0
-8734 -8737 -10515 -1 3 0
-8734 -8738 -10515 -1 -2 3 0
-8735 -8737 -10515 -2 -1 3 0
-8735 -8738 -10515 -2 3 0
-8741 -8744 -10516 -2 1 0
-8741 -8745 -10516 -2 -3 1 0
-8742 -8744 -10516 -3 -2 1 0
-8742 -8745 -10516 -3 1 0
-8740 -8743 -10517 -1 2 0
-8740 -8745 -10517 -1 -3 2 0
-8742 -8743 -10517 -3 -1 2 0
-8742 -8745 -10517 -3 2 0
-8740 -8743 -10518 -1 3 0
-8740 -8744 -10518 -1 -2 3 0
-8741 -8743 -10518 -2 -1 3 0
-8741 -8744 -10518 -2 3 0
-8747 -8750 -10519 -2 1 0
-8747 -8751 -10519 -2 -3 1 0
-8748 -8750 -10519 -3 -2 1 0
-8748 -8751 -10519 -3 1 0
-8746 -8749 -10520 -1 2 0
-8746 -8751 -10520 -1 -3 2 0
-8748 -8749 -10520 -3 -1 2 0
-8748 -8751 -10520 -3 2 0
-8746 -8749 -10521 -1 3 0
-8746 -8750 -10521 -1 -2 3 0
-8747 -8749 -10521 -2 -1 3 0
-8747 -8750 -10521 -2 3 0
-8753 -8756 -10522 -2 1 0
-8753 -8757 -10522 -2 -3 1 0
-8754 -8756 -10522 -3 -2 1 0
-8754 -8757 -10522 -3 1 0
-8752 -8755 -10523 -1 2 0
-8752 -8757 -10523 -1 -3 2 0
-8754 -8755 -10523 -3 -1 2 0
-8754 -8757 -10523 -3 2 0
-8752 -8755 -10524 -1 3 0
-8752 -8756 -10524 -1 -2 3 0
-8753 -8755 -10524 -2 -1 3 0
-8753 -8756 -10524 -2 3 0
-8759 -8762 -10525 -2 1 0
-8759 -8763 -10525 -2 -3 1 0
-8760 -8762 -10525 -3 -2 1 0
-8760 -8763 -10525 -3 1 0
-8758 -8761 -10526 -1 2 0
-8758 -8763 -10526 -1 -3 2 0
-8760 -8761 -10526 -3 -1 2 0
-8760 -8763 -10526 -3 2 0
-8758 -8761 -10527 -1 3 0
-8758 -8762 -10527 -1 -2 3 0
-8759 -8761 -10527 -2 -1 3 0
-8759 -8762 -10527 -2 3 0
-8765 -8768 -10528 -2 1 0
-8765 -8769 -10528 -2 -3 1 0
-8766 -8768 -10528 -3 -2 1 0
-8766 -8769 -10528 -3 1 0
-8764 -8767 -10529 -1 2 0
-8764 -8769 -10529 -1 -3 2 0
-8766 -8767 -10529 -3 -1 2 0
-8766 -8769 -10529 -3 2 0
-8764 -8767 -10530 -1 3 0
-8764 -8768 -10530 -1 -2 3 0
-8765 -8767 -10530 -2 -1 3 0
-8765 -8768 -10530 -2 3 0
-8771 -8774 -10531 -2 1 0
-8771 -8775 -10531 -2 -3 1 0
-8772 -8774 -10531 -3 -2 1 0
-8772 -8775 -10531 -3 1 0
-8770 -8773 -10532 -1 2 0
-8770 -8775 -10532 -1 -3 2 0
-8772 -8773 -10532 -3 -1 2 0
-8772 -8775 -10532 -3 2 0
-8770 -8773 -10533 -1 3 0
-8770 -8774 -10533 -1 -2 3 0
-8771 -8773 -10533 -2 -1 3 0
-8771 -8774 -10533 -2 3 0
-8777 -8780 -10534 -2 1 0
-8777 -8781 -10534 -2 -3 1 0
-8778 -8780 -10534 -3 -2 1 0
-8778 -8781 -10534 -3 1 0
-8776 -8779 -10535 -1 2 0
-8776 -8781 -10535 -1 -3 2 0
-8778 -8779 -10535 -3 -1 2 0
-8778 -8781 -10535 -3 2 0
-8776 -8779 -10536 -1 3 0
-8776 -8780 -10536 -1 -2 3 0
-8777 -8779 -10536 -2 -1 3 0
-8777 -8780 -10536 -2 3 0
-8783 -8786 -10537 -2 1 0
-8783 -8787 -10537 -2 -3 1 0
-8784 -8786 -10537 -3 -2 1 0
-8784 -8787 -10537 -3 1 0
-8782 -8785 -10538 -1 2 0
-8782 -8787 -10538 -1 -3 2 0
-8784 -8785 -10538 -3 -1 2 0
-8784 -8787 -10538 -3 2 0
-8782 -8785 -10539 -1 3 0
-8782 -8786 -10539 -1 -2 3 0
-8783 -8785 -10539 -2 -1 3 0
-8783 -8786 -10539 -2 3 0
-8789 -8792 -10540 -2 1 0
-8789 -8793 -10540 -2 -3 1 0
-8790 -8792 -10540 -3 -2 1 0
-8790 -8793 -10540 -3 1 0
-8788 -8791 -10541 -1 2 0
-8788 -8793 -10541 -1 -3 2 0
-8790 -8791 -10541 -3 -1 2 0
-8790 -8793 -10541 -3 2 0
-8788 -8791 -10542 -1 3 0
-8788 -8792 -10542 -1 -2 3 0
-8789 -8791 -10542 -2 -1 3 0
-8789 -8792 -10542 -2 3 0
-8795 -8798 -10543 -2 1 0
-8795 -8799 -10543 -2 -3 1 0
-8796 -8798 -10543 -3 -2 1 0
-8796 -8799 -10543 -3 1 0
-8794 -8797 -10544 -1 2 0
-8794 -8799 -10544 -1 -3 2 0
-8796 -8797 -10544 -3 -1 2 0
-8796 -8799 -10544 -3 2 0
-8794 -8797 -10545 -1 3 0
-8794 -8798 -10545 -1 -2 3 0
-8795 -8797 -10545 -2 -1 3 0
-8795 -8798 -10545 -2 3 0
-8801 -8804 -10546 -2 1 0
-8801 -8805 -10546 -2 -3 1 0
-8802 -8804 -10546 -3 -2 1 0
-8802 -8805 -10546 -3 1 0
-8800 -8803 -10547 -1 2 0
-8800 -8805 -10547 -1 -3 2 0
-8802 -8803 -10547 -3 -1 2 0
-8802 -8805 -10547 -3 2 0
-8800 -8803 -10548 -1 3 0
-8800 -8804 -10548 -1 -2 3 0
-8801 -8803 -10548 -2 -1 3 0
-8801 -8804 -10548 -2 3 0
-8807 -8810 -10549 -2 1 0
-8807 -8811 -10549 -2 -3 1 0
-8808 -8810 -10549 -3 -2 1 0
-8808 -8811 -10549 -3 1 0
-8806 -8809 -10550 -1 2 0
-8806 -8811 -10550 -1 -3 2 0
-8808 -8809 -10550 -3 -1 2 0
-8808 -8811 -10550 -3 2 0
-8806 -8809 -10551 -1 3 0
-8806 -8810 -10551 -1 -2 3 0
-8807 -8809 -10551 -2 -1 3 0
-8807 -8810 -10551 -2 3 0
-8813 -8816 -10552 -2 1 0
-8813 -8817 -10552 -2 -3 1 0
-8814 -8816 -10552 -3 -2 1 0
-8814 -8817 -10552 -3 1 0
-8812 -8815 -10553 -1 2 0
-8812 -8817 -10553 -1 -3 2 0
-8814 -8815 -10553 -3 -1 2 0
-8814 -8817 -10553 -3 2 0
-8812 -8815 -10554 -1 3 0
-8812 -8816 -10554 -1 -2 3 0
-8813 -8815 -10554 -2 -1 3 0
-8813 -8816 -10554 -2 3 0
-8819 -8822 -10555 -2 1 0
-8819 -8823 -10555 -2 -3 1 0
-8820 -8822 -10555 -3 -2 1 0
-8820 -8823 -10555 -3 1 0
-8818 -8821 -10556 -1 2 0
-8818 -8823 -10556 -1 -3 2 0
-8820 -8821 -10556 -3 -1 2 0
-8820 -8823 -10556 -3 2 0
-8818 -8821 -10557 -1 3 0
-8818 -8822 -10557 -1 -2 3 0
-8819 -8821 -10557 -2 -1 3 0
-8819 -8822 -10557 -2 3 0
-8825 -8828 -10558 -2 1 0
-8825 -8829 -10558 -2 -3 1 0
-8826 -8828 -10558 -3 -2 1 0
-8826 -8829 -10558 -3 1 0
-8824 -8827 -10559 -1 2 0
-8824 -8829 -10559 -1 -3 2 0
-8826 -8827 -10559 -3 -1 2 0
-8826 -8829 -10559 -3 2 0
-8824 -8827 -10560 -1 3 0
-8824 -8828 -10560 -1 -2 3 0
-8825 -8827 -10560 -2 -1 3 0
-8825 -8828 -10560 -2 3 0
-8831 -8834 -10561 -2 1 0
-8831 -8835 -10561 -2 -3 1 0
-8832 -8834 -10561 -3 -2 1 0
-8832 -8835 -10561 -3 1 0
-8830 -8833 -10562 -1 2 0
-8830 -8835 -10562 -1 -3 2 0
-8832 -8833 -10562 -3 -1 2 0
-8832 -8835 -10562 -3 2 0
-8830 -8833 -10563 -1 3 0
-8830 -8834 -10563 -1 -2 3 0
-8831 -8833 -10563 -2 -1 3 0
-8831 -8834 -10563 -2 3 0
-8837 -8840 -10564 -2 1 0
-8837 -8841 -10564 -2 -3 1 0
-8838 -8840 -10564 -3 -2 1 0
-8838 -8841 -10564 -3 1 0
-8836 -8839 -10565 -1 2 0
-8836 -8841 -10565 -1 -3 2 0
-8838 -8839 -10565 -3 -1 2 0
-8838 -8841 -10565 -3 2 0
-8836 -8839 -10566 -1 3 0
-8836 -8840 -10566 -1 -2 3 0
-8837 -8839 -10566 -2 -1 3 0
-8837 -8840 -10566 -2 3 0
-8843 -8846 -10567 -2 1 0
-8843 -8847 -10567 -2 -3 1 0
-8844 -8846 -10567 -3 -2 1 0
-8844 -8847 -10567 -3 1 0
-8842 -8845 -10568 -1 2 0
-8842 -8847 -10568 -1 -3 2 0
-8844 -8845 -10568 -3 -1 2 0
-8844 -8847 -10568 -3 2 0
-8842 -8845 -10569 -1 3 0
-8842 -8846 -10569 -1 -2 3 0
-8843 -8845 -10569 -2 -1 3 0
-8843 -8846 -10569 -2 3 0
-8849 -8852 -10570 -2 1 0
-8849 -8853 -10570 -2 -3 1 0
-8850 -8852 -10570 -3 -2 1 0
-8850 -8853 -10570 -3 1 0
-8848 -8851 -10571 -1 2 0
-8848 -8853 -10571 -1 -3 2 0
-8850 -8851 -10571 -3 -1 2 0
-8850 -8853 -10571 -3 2 0
-8848 -8851 -10572 -1 3 0
-8848 -8852 -10572 -1 -2 3 0
-8849 -8851 -10572 -2 -1 3 0
-8849 -8852 -10572 -2 3 0
-8855 -8858 -10573 -2 1 0
-8855 -8859 -10573 -2 -3 1 0
-8856 -8858 -10573 -3 -2 1 0
-8856 -8859 -10573 -3 1 0
-8854 -8857 -10574 -1 2 0
-8854 -8859 -10574 -1 -3 2 0
-8856 -8857 -10574 -3 -1 2 0
-8856 -8859 -10574 -3 2 0
-8854 -8857 -10575 -1 3 0
-8854 -8858 -10575 -1 -2 3 0
-8855 -8857 -10575 -2 -1 3 0
-8855 -8858 -10575 -2 3 0
-8861 -8864 -10576 -2 1 0
-8861 -8865 -10576 -2 -3 1 0
-8862 -8864 -10576 -3 -2 1 0
-8862 -8865 -10576 -3 1 0
-8860 -8863 -10577 -1 2 0
-8860 -8865 -10577 -1 -3 2 0
-8862 -8863 -10577 -3 -1 2 0
-8862 -8865 -10577 -3 2 0
-8860 -8863 -10578 -1 3 0
-8860 -8864 -10578 -1 -2 3 0
-8861 -8863 -10578 -2 -1 3 0
-8861 -8864 -10578 -2 3 0
-8867 -8870 -10579 -2 1 0
-8867 -8871 -10579 -2 -3 1 0
-8868 -8870 -10579 -3 -2 1 0
-8868 -8871 -10579 -3 1 0
-8866 -8869 -10580 -1 2 0
-8866 -8871 -10580 -1 -3 2 0
-8868 -8869 -10580 -3 -1 2 0
-8868 -8871 -10580 -3 2 0
-8866 -8869 -10581 -1 3 0
-8866 -8870 -10581 -1 -2 3 0
-8867 -8869 -10581 -2 -1 3 0
-8867 -8870 -10581 -2 3 0
-8873 -8876 -10582 -2 1 0
-8873 -8877 -10582 -2 -3 1 0
-8874 -8876 -10582 -3 -2 1 0
-8874 -8877 -10582 -3 1 0
-8872 -8875 -10583 -1 2 0
-8872 -8877 -10583 -1 -3 2 0
-8874 -8875 -10583 -3 -1 2 0
-8874 -8877 -10583 -3 2 0
-8872 -8875 -10584 -1 3 0
-8872 -8876 -10584 -1 -2 3 0
-8873 -8875 -10584 -2 -1 3 0
-8873 -8876 -10584 -2 3 0
-8879 -8882 -10585 -2 1 0
-8879 -8883 -10585 -2 -3 1 0
-8880 -8882 -10585 -3 -2 1 0
-8880 -8883 -10585 -3 1 0
-8878 -8881 -10586 -1 2 0
-8878 -8883 -10586 -1 -3 2 0
-8880 -8881 -10586 -3 -1 2 0
-8880 -8883 -10586 -3 2 0
-8878 -8881 -10587 -1 3 0
-8878 -8882 -10587 -1 -2 3 0
-8879 -8881 -10587 -2 -1 3 0
-8879 -8882 -10587 -2 3 0
-8885 -8888 -10588 -2 1 0
-8885 -8889 -10588 -2 -3 1 0
-8886 -8888 -10588 -3 -2 1 0
-8886 -8889 -10588 -3 1 0
-8884 -8887 -10589 -1 2 0
-8884 -8889 -10589 -1 -3 2 0
-8886 -8887 -10589 -3 -1 2 0
-8886 -8889 -10589 -3 2 0
-8884 -8887 -10590 -1 3 0
-8884 -8888 -10590 -1 -2 3 0
-8885 -8887 -10590 -2 -1 3 0
-8885 -8888 -10590 -2 3 0
-8891 -8894 -10591 -2 1 0
-8891 -8895 -10591 -2 -3 1 0
-8892 -8894 -10591 -3 -2 1 0
-8892 -8895 -10591 -3 1 0
-8890 -8893 -10592 -1 2 0
-8890 -8895 -10592 -1 -3 2 0
-8892 -8893 -10592 -3 -1 2 0
-8892 -8895 -10592 -3 2 0
-8890 -8893 -10593 -1 3 0
-8890 -8894 -10593 -1 -2 3 0
-8891 -8893 -10593 -2 -1 3 0
-8891 -8894 -10593 -2 3 0
-8897 -8900 -10594 -2 1 0
-8897 -8901 -10594 -2 -3 1 0
-8898 -8900 -10594 -3 -2 1 0
-8898 -8901 -10594 -3 1 0
-8896 -8899 -10595 -1 2 0
-8896 -8901 -10595 -1 -3 2 0
-8898 -8899 -10595 -3 -1 2 0
-8898 -8901 -10595 -3 2 0
-8896 -8899 -10596 -1 3 0
-8896 -8900 -10596 -1 -2 3 0
-8897 -8899 -10596 -2 -1 3 0
-8897 -8900 -10596 -2 3 0
-8903 -8906 -10597 -2 1 0
-8903 -8907 -10597 -2 -3 1 0
-8904 -8906 -10597 -3 -2 1 0
-8904 -8907 -10597 -3 1 0
-8902 -8905 -10598 -1 2 0
-8902 -8907 -10598 -1 -3 2 0
-8904 -8905 -10598 -3 -1 2 0
-8904 -8907 -10598 -3 2 0
-8902 -8905 -10599 -1 3 0
-8902 -8906 -10599 -1 -2 3 0
-8903 -8905 -10599 -2 -1 3 0
-8903 -8906 -10599 -2 3 0
-8909 -8912 -10600 -2 1 0
-8909 -8913 -10600 -2 -3 1 0
-8910 -8912 -10600 -3 -2 1 0
-8910 -8913 -10600 -3 1 0
-8908 -8911 -10601 -1 2 0
-8908 -8913 -10601 -1 -3 2 0
-8910 -8911 -10601 -3 -1 2 0
-8910 -8913 -10601 -3 2 0
-8908 -8911 -10602 -1 3 0
-8908 -8912 -10602 -1 -2 3 0
-8909 -8911 -10602 -2 -1 3 0
-8909 -8912 -10602 -2 3 0
-8915 -8918 -10603 -2 1 0
-8915 -8919 -10603 -2 -3 1 0
-8916 -8918 -10603 -3 -2 1 0
-8916 -8919 -10603 -3 1 0
-8914 -8917 -10604 -1 2 0
-8914 -8919 -10604 -1 -3 2 0
-8916 -8917 -10604 -3 -1 2 0
-8916 -8919 -10604 -3 2 0
-8914 -8917 -10605 -1 3 0
-8914 -8918 -10605 -1 -2 3 0
-8915 -8917 -10605 -2 -1 3 0
-8915 -8918 -10605 -2 3 0
-8921 -8924 -10606 -2 1 0
-8921 -8925 -10606 -2 -3 1 0
-8922 -8924 -10606 -3 -2 1 0
-8922 -8925 -10606 -3 1 0
-8920 -8923 -10607 -1 2 0
-8920 -8925 -10607 -1 -3 2 0
-8922 -8923 -10607 -3 -1 2 0
-8922 -8925 -10607 -3 2 0
-8920 -8923 -10608 -1 3 0
-8920 -8924 -10608 -1 -2 3 0
-8921 -8923 -10608 -2 -1 3 0
-8921 -8924 -10608 -2 3 0
-8927 -8930 -10609 -2 1 0
-8927 -8931 -10609 -2 -3 1 0
-8928 -8930 -10609 -3 -2 1 0
-8928 -8931 -10609 -3 1 0
-8926 -8929 -10610 -1 2 0
-8926 -8931 -10610 -1 -3 2 0
-8928 -8929 -10610 -3 -1 2 0
-8928 -8931 -10610 -3 2 0
-8926 -8929 -10611 -1 3 0
-8926 -8930 -10611 -1 -2 3 0
-8927 -8929 -10611 -2 -1 3 0
-8927 -8930 -10611 -2 3 0
-8933 -8936 -10612 -2 1 0
-8933 -8937 -10612 -2 -3 1 0
-8934 -8936 -10612 -3 -2 1 0
-8934 -8937 -10612 -3 1 0
-8932 -8935 -10613 -1 2 0
-8932 -8937 -10613 -1 -3 2 0
-8934 -8935 -10613 -3 -1 2 0
-8934 -8937 -10613 -3 2 0
-8932 -8935 -10614 -1 3 0
-8932 -8936 -10614 -1 -2 3 0
-8933 -8935 -10614 -2 -1 3 0
-8933 -8936 -10614 -2 3 0
-8939 -8942 -10615 -2 1 0
-8939 -8943 -10615 -2 -3 1 0
-8940 -8942 -10615 -3 -2 1 0
-8940 -8943 -10615 -3 1 0
-8938 -8941 -10616 -1 2 0
-8938 -8943 -10616 -1 -3 2 0
-8940 -8941 -10616 -3 -1 2 0
-8940 -8943 -10616 -3 2 0
-8938 -8941 -10617 -1 3 0
-8938 -8942 -10617 -1 -2 3 0
-8939 -8941 -10617 -2 -1 3 0
-8939 -8942 -10617 -2 3 0
-8945 -8948 -10618 -2 1 0
-8945 -8949 -10618 -2 -3 1 0
-8946 -8948 -10618 -3 -2 1 0
-8946 -8949 -10618 -3 1 0
-8944 -8947 -10619 -1 2 0
-8944 -8949 -10619 -1 -3 2 0
-8946 -8947 -10619 -3 -1 2 0
-8946 -8949 -10619 -3 2 0
-8944 -8947 -10620 -1 3 0
-8944 -8948 -10620 -1 -2 3 0
-8945 -8947 -10620 -2 -1 3 0
-8945 -8948 -10620 -2 3 0
-8951 -8954 -10621 -2 1 0
-8951 -8955 -10621 -2 -3 1 0
-8952 -8954 -10621 -3 -2 1 0
-8952 -8955 -10621 -3 1 0
-8950 -8953 -10622 -1 2 0
-8950 -8955 -10622 -1 -3 2 0
-8952 -8953 -10622 -3 -1 2 0
-8952 -8955 -10622 -3 2 0
-8950 -8953 -10623 -1 3 0
-8950 -8954 -10623 -1 -2 3 0
-8951 -8953 -10623 -2 -1 3 0
-8951 -8954 -10623 -2 3 0
-8957 -8960 -10624 -2 1 0
-8957 -8961 -10624 -2 -3 1 0
-8958 -8960 -10624 -3 -2 1 0
-8958 -8961 -10624 -3 1 0
-8956 -8959 -10625 -1 2 0
-8956 -8961 -10625 -1 -3 2 0
-8958 -8959 -10625 -3 -1 2 0
-8958 -8961 -10625 -3 2 0
-8956 -8959 -10626 -1 3 0
-8956 -8960 -10626 -1 -2 3 0
-8957 -8959 -10626 -2 -1 3 0
-8957 -8960 -10626 -2 3 0
-8963 -8966 -10627 -2 1 0
-8963 -8967 -10627 -2 -3 1 0
-8964 -8966 -10627 -3 -2 1 0
-8964 -8967 -10627 -3 1 0
-8962 -8965 -10628 -1 2 0
-8962 -8967 -10628 -1 -3 2 0
-8964 -8965 -10628 -3 -1 2 0
-8964 -8967 -10628 -3 2 0
-8962 -8965 -10629 -1 3 0
-8962 -8966 -10629 -1 -2 3 0
-8963 -8965 -10629 -2 -1 3 0
-8963 -8966 -10629 -2 3 0
-8969 -8972 -10630 -2 1 0
-8969 -8973 -10630 -2 -3 1 0
-8970 -8972 -10630 -3 -2 1 0
-8970 -8973 -10630 -3 1 0
-8968 -8971 -10631 -1 2 0
-8968 -8973 -10631 -1 -3 2 0
-8970 -8971 -10631 -3 -1 2 0
-8970 -8973 -10631 -3 2 0
-8968 -8971 -10632 -1 3 0
-8968 -8972 -10632 -1 -2 3 0
-8969 -8971 -10632 -2 -1 3 0
-8969 -8972 -10632 -2 3 0
-8975 -8978 -10633 -2 1 0
-8975 -8979 -10633 -2 -3 1 0
-8976 -8978 -10633 -3 -2 1 0
-8976 -8979 -10633 -3 1 0
-8974 -8977 -10634 -1 2 0
-8974 -8979 -10634 -1 -3 2 0
-8976 -8977 -10634 -3 -1 2 0
-8976 -8979 -10634 -3 2 0
-8974 -8977 -10635 -1 3 0
-8974 -8978 -10635 -1 -2 3 0
-8975 -8977 -10635 -2 -1 3 0
-8975 -8978 -10635 -2 3 0
-8981 -8984 -10636 -2 1 0
-8981 -8985 -10636 -2 -3 1 0
-8982 -8984 -10636 -3 -2 1 0
-8982 -8985 -10636 -3 1 0
-8980 -8983 -10637 -1 2 0
-8980 -8985 -10637 -1 -3 2 0
-8982 -8983 -10637 -3 -1 2 0
-8982 -8985 -10637 -3 2 0
-8980 -8983 -10638 -1 3 0
-8980 -8984 -10638 -1 -2 3 0
-8981 -8983 -10638 -2 -1 3 0
-8981 -8984 -10638 -2 3 0
-8987 -8990 -10639 -2 1 0
-8987 -8991 -10639 -2 -3 1 0
-8988 -8990 -10639 -3 -2 1 0
-8988 -8991 -10639 -3 1 0
-8986 -8989 -10640 -1 2 0
-8986 -8991 -10640 -1 -3 2 0
-8988 -8989 -10640 -3 -1 2 0
-8988 -8991 -10640 -3 2 0
-8986 -8989 -10641 -1 3 0
-8986 -8990 -10641 -1 -2 3 0
-8987 -8989 -10641 -2 -1 3 0
-8987 -8990 -10641 -2 3 0
-8993 -8996 -10642 -2 1 0
-8993 -8997 -10642 -2 -3 1 0
-8994 -8996 -10642 -3 -2 1 0
-8994 -8997 -10642 -3 1 0
-8992 -8995 -10643 -1 2 0
-8992 -8997 -10643 -1 -3 2 0
-8994 -8995 -10643 -3 -1 2 0
-8994 -8997 -10643 -3 2 0
-8992 -8995 -10644 -1 3 0
-8992 -8996 -10644 -1 -2 3 0
-8993 -8995 -10644 -2 -1 3 0
-8993 -8996 -10644 -2 3 0
-8999 -9002 -10645 -2 1 0
-8999 -9003 -10645 -2 -3 1 0
-9000 -9002 -10645 -3 -2 1 0
-9000 -9003 -10645 -3 1 0
-8998 -9001 -10646 -1 2 0
-8998 -9003 -10646 -1 -3 2 0
-9000 -9001 -10646 -3 -1 2 0
-9000 -9003 -10646 -3 2 0
-8998 -9001 -10647 -1 3 0
-8998 -9002 -10647 -1 -2 3 0
-8999 -9001 -10647 -2 -1 3 0
-8999 -9002 -10647 -2 3 0
-9005 -9008 -10648 -2 1 0
-9005 -9009 -10648 -2 -3 1 0
-9006 -9008 -10648 -3 -2 1 0
-9006 -9009 -10648 -3 1 0
-9004 -9007 -10649 -1 2 0
-9004 -9009 -10649 -1 -3 2 0
-9006 -9007 -10649 -3 -1 2 0
-9006 -9009 -10649 -3 2 0
-9004 -9007 -10650 -1 3 0
-9004 -9008 -10650 -1 -2 3 0
-9005 -9007 -10650 -2 -1 3 0
-9005 -9008 -10650 -2 3 0
-9011 -9014 -10651 -2 1 0
-9011 -9015 -10651 -2 -3 1 0
-9012 -9014 -10651 -3 -2 1 0
-9012 -9015 -10651 -3 1 0
-9010 -9013 -10652 -1 2 0
-9010 -9015 -10652 -1 -3 2 0
-9012 -9013 -10652 -3 -1 2 0
-9012 -9015 -10652 -3 2 0
-9010 -9013 -10653 -1 3 0
-9010 -9014 -10653 -1 -2 3 0
-9011 -9013 -10653 -2 -1 3 0
-9011 -9014 -10653 -2 3 0
-9017 -9020 -10654 -2 1 0
-9017 -9021 -10654 -2 -3 1 0
-9018 -9020 -10654 -3 -2 1 0
-9018 -9021 -10654 -3 1 0
-9016 -9019 -10655 -1 2 0
-9016 -9021 -10655 -1 -3 2 0
-9018 -9019 -10655 -3 -1 2 0
-9018 -9021 -10655 -3 2 0
-9016 -9019 -10656 -1 3 0
-9016 -9020 -10656 -1 -2 3 0
-9017 -9019 -10656 -2 -1 3 0
-9017 -9020 -10656 -2 3 0
-9023 -9026 -10657 -2 1 0
-9023 -9027 -10657 -2 -3 1 0
-9024 -9026 -10657 -3 -2 1 0
-9024 -9027 -10657 -3 1 0
-9022 -9025 -10658 -1 2 0
-9022 -9027 -10658 -1 -3 2 0
-9024 -9025 -10658 -3 -1 2 0
-9024 -9027 -10658 -3 2 0
-9022 -9025 -10659 -1 3 0
-9022 -9026 -10659 -1 -2 3 0
-9023 -9025 -10659 -2 -1 3 0
-9023 -9026 -10659 -2 3 0
-9029 -9032 -10660 -2 1 0
-9029 -9033 -10660 -2 -3 1 0
-9030 -9032 -10660 -3 -2 1 0
-9030 -9033 -10660 -3 1 0
-9028 -9031 -10661 -1 2 0
-9028 -9033 -10661 -1 -3 2 0
-9030 -9031 -10661 -3 -1 2 0
-9030 -9033 -10661 -3 2 0
-9028 -9031 -10662 -1 3 0
-9028 -9032 -10662 -1 -2 3 0
-9029 -9031 -10662 -2 -1 3 0
-9029 -9032 -10662 -2 3 0
-9035 -9038 -10663 -2 1 0
-9035 -9039 -10663 -2 -3 1 0
-9036 -9038 -10663 -3 -2 1 0
-9036 -9039 -10663 -3 1 0
-9034 -9037 -10664 -1 2 0
-9034 -9039 -10664 -1 -3 2 0
-9036 -9037 -10664 -3 -1 2 0
-9036 -9039 -10664 -3 2 0
-9034 -9037 -10665 -1 3 0
-9034 -9038 -10665 -1 -2 3 0
-9035 -9037 -10665 -2 -1 3 0
-9035 -9038 -10665 -2 3 0
-9041 -9044 -10666 -2 1 0
-9041 -9045 -10666 -2 -3 1 0
-9042 -9044 -10666 -3 -2 1 0
-9042 -9045 -10666 -3 1 0
-9040 -9043 -10667 -1 2 0
-9040 -9045 -10667 -1 -3 2 0
-9042 -9043 -10667 -3 -1 2 0
-9042 -9045 -10667 -3 2 0
-9040 -9043 -10668 -1 3 0
-9040 -9044 -10668 -1 -2 3 0
-9041 -9043 -10668 -2 -1 3 0
-9041 -9044 -10668 -2 3 0
-9047 -9050 -10669 -2 1 0
-9047 -9051 -10669 -2 -3 1 0
-9048 -9050 -10669 -3 -2 1 0
-9048 -9051 -10669 -3 1 0
-9046 -9049 -10670 -1 2 0
-9046 -9051 -10670 -1 -3 2 0
-9048 -9049 -10670 -3 -1 2 0
-9048 -9051 -10670 -3 2 0
-9046 -9049 -10671 -1 3 0
-9046 -9050 -10671 -1 -2 3 0
-9047 -9049 -10671 -2 -1 3 0
-9047 -9050 -10671 -2 3 0
-9053 -9056 -10672 -2 1 0
-9053 -9057 -10672 -2 -3 1 0
-9054 -9056 -10672 -3 -2 1 0
-9054 -9057 -10672 -3 1 0
-9052 -9055 -10673 -1 2 0
-9052 -9057 -10673 -1 -3 2 0
-9054 -9055 -10673 -3 -1 2 0
-9054 -9057 -10673 -3 2 0
-9052 -9055 -10674 -1 3 0
-9052 -9056 -10674 -1 -2 3 0
-9053 -9055 -10674 -2 -1 3 0
-9053 -9056 -10674 -2 3 0
-9059 -9062 -10675 -2 1 0
-9059 -9063 -10675 -2 -3 1 0
-9060 -9062 -10675 -3 -2 1 0
-9060 -9063 -10675 -3 1 0
-9058 -9061 -10676 -1 2 0
-9058 -9063 -10676 -1 -3 2 0
-9060 -9061 -10676 -3 -1 2 0
-9060 -9063 -10676 -3 2 0
-9058 -9061 -10677 -1 3 0
-9058 -9062 -10677 -1 -2 3 0
-9059 -9061 -10677 -2 -1 3 0
-9059 -9062 -10677 -2 3 0
-9065 -9068 -10678 -2 1 0
-9065 -9069 -10678 -2 -3 1 0
-9066 -9068 -10678 -3 -2 1 0
-9066 -9069 -10678 -3 1 0
-9064 -9067 -10679 -1 2 0
-9064 -9069 -10679 -1 -3 2 0
-9066 -9067 -10679 -3 -1 2 0
-9066 -9069 -10679 -3 2 0
-9064 -9067 -10680 -1 3 0
-9064 -9068 -10680 -1 -2 3 0
-9065 -9067 -10680 -2 -1 3 0
-9065 -9068 -10680 -2 3 0
-9071 -9074 -10681 -2 1 0
-9071 -9075 -10681 -2 -3 1 0
-9072 -9074 -10681 -3 -2 1 0
-9072 -9075 -10681 -3 1 0
-9070 -9073 -10682 -1 2 0
-9070 -9075 -10682 -1 -3 2 0
-9072 -9073 -10682 -3 -1 2 0
-9072 -9075 -10682 -3 2 0
-9070 -9073 -10683 -1 3 0
-9070 -9074 -10683 -1 -2 3 0
-9071 -9073 -10683 -2 -1 3 0
-9071 -9074 -10683 -2 3 0
-9077 -9080 -10684 -2 1 0
-9077 -9081 -10684 -2 -3 1 0
-9078 -9080 -10684 -3 -2 1 0
-9078 -9081 -10684 -3 1 0
-9076 -9079 -10685 -1 2 0
-9076 -9081 -10685 -1 -3 2 0
-9078 -9079 -10685 -3 -1 2 0
-9078 -9081 -10685 -3 2 0
-9076 -9079 -10686 -1 3 0
-9076 -9080 -10686 -1 -2 3 0
-9077 -9079 -10686 -2 -1 3 0
-9077 -9080 -10686 -2 3 0
-9083 -9086 -10687 -2 1 0
-9083 -9087 -10687 -2 -3 1 0
-9084 -9086 -10687 -3 -2 1 0
-9084 -9087 -10687 -3 1 0
-9082 -9085 -10688 -1 2 0
-9082 -9087 -10688 -1 -3 2 0
-9084 -9085 -10688 -3 -1 2 0
-9084 -9087 -10688 -3 2 0
-9082 -9085 -10689 -1 3 0
-9082 -9086 -10689 -1 -2 3 0
-9083 -9085 -10689 -2 -1 3 0
-9083 -9086 -10689 -2 3 0
-9089 -9092 -10690 -2 1 0
-9089 -9093 -10690 -2 -3 1 0
-9090 -9092 -10690 -3 -2 1 0
-9090 -9093 -10690 -3 1 0
-9088 -9091 -10691 -1 2 0
-9088 -9093 -10691 -1 -3 2 0
-9090 -9091 -10691 -3 -1 2 0
-9090 -9093 -10691 -3 2 0
-9088 -9091 -10692 -1 3 0
-9088 -9092 -10692 -1 -2 3 0
-9089 -9091 -10692 -2 -1 3 0
-9089 -9092 -10692 -2 3 0
-9095 -9098 -10693 -2 1 0
-9095 -9099 -10693 -2 -3 1 0
-9096 -9098 -10693 -3 -2 1 0
-9096 -9099 -10693 -3 1 0
-9094 -9097 -10694 -1 2 0
-9094 -9099 -10694 -1 -3 2 0
-9096 -9097 -10694 -3 -1 2 0
-9096 -9099 -10694 -3 2 0
-9094 -9097 -10695 -1 3 0
-9094 -9098 -10695 -1 -2 3 0
-9095 -9097 -10695 -2 -1 3 0
-9095 -9098 -10695 -2 3 0
-9101 -9104 -10696 -2 1 0
-9101 -9105 -10696 -2 -3 1 0
-9102 -9104 -10696 -3 -2 1 0
-9102 -9105 -10696 -3 1 0
-9100 -9103 -10697 -1 2 0
-9100 -9105 -10697 -1 -3 2 0
-9102 -9103 -10697 -3 -1 2 0
-9102 -9105 -10697 -3 2 0
-9100 -9103 -10698 -1 3 0
-9100 -9104 -10698 -1 -2 3 0
-9101 -9103 -10698 -2 -1 3 0
-9101 -9104 -10698 -2 3 0
-9107 -9110 -10699 -2 1 0
-9107 -9111 -10699 -2 -3 1 0
-9108 -9110 -10699 -3 -2 1 0
-9108 -9111 -10699 -3 1 0
-9106 -9109 -10700 -1 2 0
-9106 -9111 -10700 -1 -3 2 0
-9108 -9109 -10700 -3 -1 2 0
-9108 -9111 -10700 -3 2 0
-9106 -9109 -10701 -1 3 0
-9106 -9110 -10701 -1 -2 3 0
-9107 -9109 -10701 -2 -1 3 0
-9107 -9110 -10701 -2 3 0
-9113 -9116 -10702 -2 1 0
-9113 -9117 -10702 -2 -3 1 0
-9114 -9116 -10702 -3 -2 1 0
-9114 -9117 -10702 -3 1 0
-9112 -9115 -10703 -1 2 0
-9112 -9117 -10703 -1 -3 2 0
-9114 -9115 -10703 -3 -1 2 0
-9114 -9117 -10703 -3 2 0
-9112 -9115 -10704 -1 3 0
-9112 -9116 -10704 -1 -2 3 0
-9113 -9115 -10704 -2 -1 3 0
-9113 -9116 -10704 -2 3 0
-9119 -9122 -10705 -2 1 0
-9119 -9123 -10705 -2 -3 1 0
-9120 -9122 -10705 -3 -2 1 0
-9120 -9123 -10705 -3 1 0
-9118 -9121 -10706 -1 2 0
-9118 -9123 -10706 -1 -3 2 0
-9120 -9121 -10706 -3 -1 2 0
-9120 -9123 -10706 -3 2 0
-9118 -9121 -10707 -1 3 0
-9118 -9122 -10707 -1 -2 3 0
-9119 -9121 -10707 -2 -1 3 0
-9119 -9122 -10707 -2 3 0
-9125 -9128 -10708 -2 1 0
-9125 -9129 -10708 -2 -3 1 0
-9126 -9128 -10708 -3 -2 1 0
-9126 -9129 -10708 -3 1 0
-9124 -9127 -10709 -1 2 0
-9124 -9129 -10709 -1 -3 2 0
-9126 -9127 -10709 -3 -1 2 0
-9126 -9129 -10709 -3 2 0
-9124 -9127 -10710 -1 3 0
-9124 -9128 -10710 -1 -2 3 0
-9125 -9127 -10710 -2 -1 3 0
-9125 -9128 -10710 -2 3 0
-9131 -9134 -10711 -2 1 0
-9131 -9135 -10711 -2 -3 1 0
-9132 -9134 -10711 -3 -2 1 0
-9132 -9135 -10711 -3 1 0
-9130 -9133 -10712 -1 2 0
-9130 -9135 -10712 -1 -3 2 0
-9132 -9133 -10712 -3 -1 2 0
-9132 -9135 -10712 -3 2 0
-9130 -9133 -10713 -1 3 0
-9130 -9134 -10713 -1 -2 3 0
-9131 -9133 -10713 -2 -1 3 0
-9131 -9134 -10713 -2 3 0
-9137 -9140 -10714 -2 1 0
-9137 -9141 -10714 -2 -3 1 0
-9138 -9140 -10714 -3 -2 1 0
-9138 -9141 -10714 -3 1 0
-9136 -9139 -10715 -1 2 0
-9136 -9141 -10715 -1 -3 2 0
-9138 -9139 -10715 -3 -1 2 0
-9138 -9141 -10715 -3 2 0
-9136 -9139 -10716 -1 3 0
-9136 -9140 -10716 -1 -2 3 0
-9137 -9139 -10716 -2 -1 3 0
-9137 -9140 -10716 -2 3 0
-9143 -9146 -10717 -2 1 0
-9143 -9147 -10717 -2 -3 1 0
-9144 -9146 -10717 -3 -2 1 0
-9144 -9147 -10717 -3 1 0
-9142 -9145 -10718 -1 2 0
-9142 -9147 -10718 -1 -3 2 0
-9144 -9145 -10718 -3 -1 2 0
-9144 -9147 -10718 -3 2 0
-9142 -9145 -10719 -1 3 0
-9142 -9146 -10719 -1 -2 3 0
-9143 -9145 -10719 -2 -1 3 0
-9143 -9146 -10719 -2 3 0
-9149 -9152 -10720 -2 1 0
-9149 -9153 -10720 -2 -3 1 0
-9150 -9152 -10720 -3 -2 1 0
-9150 -9153 -10720 -3 1 0
-9148 -9151 -10721 -1 2 0
-9148 -9153 -10721 -1 -3 2 0
-9150 -9151 -10721 -3 -1 2 0
-9150 -9153 -10721 -3 2 0
-9148 -9151 -10722 -1 3 0
-9148 -9152 -10722 -1 -2 3 0
-9149 -9151 -10722 -2 -1 3 0
-9149 -9152 -10722 -2 3 0
-9155 -9158 -10723 -2 1 0
-9155 -9159 -10723 -2 -3 1 0
-9156 -9158 -10723 -3 -2 1 0
-9156 -9159 -10723 -3 1 0
-9154 -9157 -10724 -1 2 0
-9154 -9159 -10724 -1 -3 2 0
-9156 -9157 -10724 -3 -1 2 0
-9156 -9159 -10724 -3 2 0
-9154 -9157 -10725 -1 3 0
-9154 -9158 -10725 -1 -2 3 0
-9155 -9157 -10725 -2 -1 3 0
-9155 -9158 -10725 -2 3 0
-9161 -9164 -10726 -2 1 0
-9161 -9165 -10726 -2 -3 1 0
-9162 -9164 -10726 -3 -2 1 0
-9162 -9165 -10726 -3 1 0
-9160 -9163 -10727 -1 2 0
-9160 -9165 -10727 -1 -3 2 0
-9162 -9163 -10727 -3 -1 2 0
-9162 -9165 -10727 -3 2 0
-9160 -9163 -10728 -1 3 0
-9160 -9164 -10728 -1 -2 3 0
-9161 -9163 -10728 -2 -1 3 0
-9161 -9164 -10728 -2 3 0
-9167 -9170 -10729 -2 1 0
-9167 -9171 -10729 -2 -3 1 0
-9168 -9170 -10729 -3 -2 1 0
-9168 -9171 -10729 -3 1 0
-9166 -9169 -10730 -1 2 0
-9166 -9171 -10730 -1 -3 2 0
-9168 -9169 -10730 -3 -1 2 0
-9168 -9171 -10730 -3 2 0
-9166 -9169 -10731 -1 3 0
-9166 -9170 -10731 -1 -2 3 0
-9167 -9169 -10731 -2 -1 3 0
-9167 -9170 -10731 -2 3 0
-9173 -9176 -10732 -2 1 0
-9173 -9177 -10732 -2 -3 1 0
-9174 -9176 -10732 -3 -2 1 0
-9174 -9177 -10732 -3 1 0
-9172 -9175 -10733 -1 2 0
-9172 -9177 -10733 -1 -3 2 0
-9174 -9175 -10733 -3 -1 2 0
-9174 -9177 -10733 -3 2 0
-9172 -9175 -10734 -1 3 0
-9172 -9176 -10734 -1 -2 3 0
-9173 -9175 -10734 -2 -1 3 0
-9173 -9176 -10734 -2 3 0
-9179 -9182 -10735 -2 1 0
-9179 -9183 -10735 -2 -3 1 0
-9180 -9182 -10735 -3 -2 1 0
-9180 -9183 -10735 -3 1 0
-9178 -9181 -10736 -1 2 0
-9178 -9183 -10736 -1 -3 2 0
-9180 -9181 -10736 -3 -1 2 0
-9180 -9183 -10736 -3 2 0
-9178 -9181 -10737 -1 3 0
-9178 -9182 -10737 -1 -2 3 0
-9179 -9181 -10737 -2 -1 3 0
-9179 -9182 -10737 -2 3 0
-9185 -9188 -10738 -2 1 0
-9185 -9189 -10738 -2 -3 1 0
-9186 -9188 -10738 -3 -2 1 0
-9186 -9189 -10738 -3 1 0
-9184 -9187 -10739 -1 2 0
-9184 -9189 -10739 -1 -3 2 0
-9186 -9187 -10739 -3 -1 2 0
-9186 -9189 -10739 -3 2 0
-9184 -9187 -10740 -1 3 0
-9184 -9188 -10740 -1 -2 3 0
-9185 -9187 -10740 -2 -1 3 0
-9185 -9188 -10740 -2 3 0
-9191 -9194 -10741 -2 1 0
-9191 -9195 -10741 -2 -3 1 0
-9192 -9194 -10741 -3 -2 1 0
-9192 -9195 -10741 -3 1 0
-9190 -9193 -10742 -1 2 0
-9190 -9195 -10742 -1 -3 2 0
-9192 -9193 -10742 -3 -1 2 0
-9192 -9195 -10742 -3 2 0
-9190 -9193 -10743 -1 3 0
-9190 -9194 -10743 -1 -2 3 0
-9191 -9193 -10743 -2 -1 3 0
-9191 -9194 -10743 -2 3 0
-9197 -9200 -10744 -2 1 0
-9197 -9201 -10744 -2 -3 1 0
-9198 -9200 -10744 -3 -2 1 0
-9198 -9201 -10744 -3 1 0
-9196 -9199 -10745 -1 2 0
-9196 -9201 -10745 -1 -3 2 0
-9198 -9199 -10745 -3 -1 2 0
-9198 -9201 -10745 -3 2 0
-9196 -9199 -10746 -1 3 0
-9196 -9200 -10746 -1 -2 3 0
-9197 -9199 -10746 -2 -1 3 0
-9197 -9200 -10746 -2 3 0
-9203 -9206 -10747 -2 1 0
-9203 -9207 -10747 -2 -3 1 0
-9204 -9206 -10747 -3 -2 1 0
-9204 -9207 -10747 -3 1 0
-9202 -9205 -10748 -1 2 0
-9202 -9207 -10748 -1 -3 2 0
-9204 -9205 -10748 -3 -1 2 0
-9204 -9207 -10748 -3 2 0
-9202 -9205 -10749 -1 3 0
-9202 -9206 -10749 -1 -2 3 0
-9203 -9205 -10749 -2 -1 3 0
-9203 -9206 -10749 -2 3 0
-9209 -9212 -10750 -2 1 0
-9209 -9213 -10750 -2 -3 1 0
-9210 -9212 -10750 -3 -2 1 0
-9210 -9213 -10750 -3 1 0
-9208 -9211 -10751 -1 2 0
-9208 -9213 -10751 -1 -3 2 0
-9210 -9211 -10751 -3 -1 2 0
-9210 -9213 -10751 -3 2 0
-9208 -9211 -10752 -1 3 0
-9208 -9212 -10752 -1 -2 3 0
-9209 -9211 -10752 -2 -1 3 0
-9209 -9212 -10752 -2 3 0
-9215 -9218 -10753 -2 1 0
-9215 -9219 -10753 -2 -3 1 0
-9216 -9218 -10753 -3 -2 1 0
-9216 -9219 -10753 -3 1 0
-9214 -9217 -10754 -1 2 0
-9214 -9219 -10754 -1 -3 2 0
-9216 -9217 -10754 -3 -1 2 0
-9216 -9219 -10754 -3 2 0
-9214 -9217 -10755 -1 3 0
-9214 -9218 -10755 -1 -2 3 0
-9215 -9217 -10755 -2 -1 3 0
-9215 -9218 -10755 -2 3 0
-9221 -9224 -10756 -2 1 0
-9221 -9225 -10756 -2 -3 1 0
-9222 -9224 -10756 -3 -2 1 0
-9222 -9225 -10756 -3 1 0
-9220 -9223 -10757 -1 2 0
-9220 -9225 -10757 -1 -3 2 0
-9222 -9223 -10757 -3 -1 2 0
-9222 -9225 -10757 -3 2 0
-9220 -9223 -10758 -1 3 0
-9220 -9224 -10758 -1 -2 3 0
-9221 -9223 -10758 -2 -1 3 0
-9221 -9224 -10758 -2 3 0
-9227 -9230 -10759 -2 1 0
-9227 -9231 -10759 -2 -3 1 0
-9228 -9230 -10759 -3 -2 1 0
-9228 -9231 -10759 -3 1 0
-9226 -9229 -10760 -1 2 0
-9226 -9231 -10760 -1 -3 2 0
-9228 -9229 -10760 -3 -1 2 0
-9228 -9231 -10760 -3 2 0
-9226 -9229 -10761 -1 3 0
-9226 -9230 -10761 -1 -2 3 0
-9227 -9229 -10761 -2 -1 3 0
-9227 -9230 -10761 -2 3 0
-9233 -9236 -10762 -2 1 0
-9233 -9237 -10762 -2 -3 1 0
-9234 -9236 -10762 -3 -2 1 0
-9234 -9237 -10762 -3 1 0
-9232 -9235 -10763 -1 2 0
-9232 -9237 -10763 -1 -3 2 0
-9234 -9235 -10763 -3 -1 2 0
-9234 -9237 -10763 -3 2 0
-9232 -9235 -10764 -1 3 0
-9232 -9236 -10764 -1 -2 3 0
-9233 -9235 -10764 -2 -1 3 0
-9233 -9236 -10764 -2 3 0
-9239 -9242 -10765 -2 1 0
-9239 -9243 -10765 -2 -3 1 0
-9240 -9242 -10765 -3 -2 1 0
-9240 -9243 -10765 -3 1 0
-9238 -9241 -10766 -1 2 0
-9238 -9243 -10766 -1 -3 2 0
-9240 -9241 -10766 -3 -1 2 0
-9240 -9243 -10766 -3 2 0
-9238 -9241 -10767 -1 3 0
-9238 -9242 -10767 -1 -2 3 0
-9239 -9241 -10767 -2 -1 3 0
-9239 -9242 -10767 -2 3 0
-9245 -9248 -10768 -2 1 0
-9245 -9249 -10768 -2 -3 1 0
-9246 -9248 -10768 -3 -2 1 0
-9246 -9249 -10768 -3 1 0
-9244 -9247 -10769 -1 2 0
-9244 -9249 -10769 -1 -3 2 0
-9246 -9247 -10769 -3 -1 2 0
-9246 -9249 -10769 -3 2 0
-9244 -9247 -10770 -1 3 0
-9244 -9248 -10770 -1 -2 3 0
-9245 -9247 -10770 -2 -1 3 0
-9245 -9248 -10770 -2 3 0
-9251 -9254 -10771 -2 1 0
-9251 -9255 -10771 -2 -3 1 0
-9252 -9254 -10771 -3 -2 1 0
-9252 -9255 -10771 -3 1 0
-9250 -9253 -10772 -1 2 0
-9250 -9255 -10772 -1 -3 2 0
-9252 -9253 -10772 -3 -1 2 0
-9252 -9255 -10772 -3 2 0
-9250 -9253 -10773 -1 3 0
-9250 -9254 -10773 -1 -2 3 0
-9251 -9253 -10773 -2 -1 3 0
-9251 -9254 -10773 -2 3 0
-9257 -9260 -10774 -2 1 0
-9257 -9261 -10774 -2 -3 1 0
-9258 -9260 -10774 -3 -2 1 0
-9258 -9261 -10774 -3 1 0
-9256 -9259 -10775 -1 2 0
-9256 -9261 -10775 -1 -3 2 0
-9258 -9259 -10775 -3 -1 2 0
-9258 -9261 -10775 -3 2 0
-9256 -9259 -10776 -1 3 0
-9256 -9260 -10776 -1 -2 3 0
-9257 -9259 -10776 -2 -1 3 0
-9257 -9260 -10776 -2 3 0
-9263 -9266 -10777 -2 1 0
-9263 -9267 -10777 -2 -3 1 0
-9264 -9266 -10777 -3 -2 1 0
-9264 -9267 -10777 -3 1 0
-9262 -9265 -10778 -1 2 0
-9262 -9267 -10778 -1 -3 2 0
-9264 -9265 -10778 -3 -1 2 0
-9264 -9267 -10778 -3 2 0
-9262 -9265 -10779 -1 3 0
-9262 -9266 -10779 -1 -2 3 0
-9263 -9265 -10779 -2 -1 3 0
-9263 -9266 -10779 -2 3 0
-9269 -9272 -10780 -2 1 0
-9269 -9273 -10780 -2 -3 1 0
-9270 -9272 -10780 -3 -2 1 0
-9270 -9273 -10780 -3 1 0
-9268 -9271 -10781 -1 2 0
-9268 -9273 -10781 -1 -3 2 0
-9270 -9271 -10781 -3 -1 2 0
-9270 -9273 -10781 -3 2 0
-9268 -9271 -10782 -1 3 0
-9268 -9272 -10782 -1 -2 3 0
-9269 -9271 -10782 -2 -1 3 0
-9269 -9272 -10782 -2 3 0
-9275 -9278 -10783 -2 1 0
-9275 -9279 -10783 -2 -3 1 0
-9276 -9278 -10783 -3 -2 1 0
-9276 -9279 -10783 -3 1 0
-9274 -9277 -10784 -1 2 0
-9274 -9279 -10784 -1 -3 2 0
-9276 -9277 -10784 -3 -1 2 0
-9276 -9279 -10784 -3 2 0
-9274 -9277 -10785 -1 3 0
-9274 -9278 -10785 -1 -2 3 0
-9275 -9277 -10785 -2 -1 3 0
-9275 -9278 -10785 -2 3 0
-9281 -9284 -10786 -2 1 0
-9281 -9285 -10786 -2 -3 1 0
-9282 -9284 -10786 -3 -2 1 0
-9282 -9285 -10786 -3 1 0
-9280 -9283 -10787 -1 2 0
-9280 -9285 -10787 -1 -3 2 0
-9282 -9283 -10787 -3 -1 2 0
-9282 -9285 -10787 -3 2 0
-9280 -9283 -10788 -1 3 0
-9280 -9284 -10788 -1 -2 3 0
-9281 -9283 -10788 -2 -1 3 0
-9281 -9284 -10788 -2 3 0
-9287 -9290 -10789 -2 1 0
-9287 -9291 -10789 -2 -3 1 0
-9288 -9290 -10789 -3 -2 1 0
-9288 -9291 -10789 -3 1 0
-9286 -9289 -10790 -1 2 0
-9286 -9291 -10790 -1 -3 2 0
-9288 -9289 -10790 -3 -1 2 0
-9288 -9291 -10790 -3 2 0
-9286 -9289 -10791 -1 3 0
-9286 -9290 -10791 -1 -2 3 0
-9287 -9289 -10791 -2 -1 3 0
-9287 -9290 -10791 -2 3 0
-9293 -9296 -10792 -2 1 0
-9293 -9297 -10792 -2 -3 1 0
-9294 -9296 -10792 -3 -2 1 0
-9294 -9297 -10792 -3 1 0
-9292 -9295 -10793 -1 2 0
-9292 -9297 -10793 -1 -3 2 0
-9294 -9295 -10793 -3 -1 2 0
-9294 -9297 -10793 -3 2 0
-9292 -9295 -10794 -1 3 0
-9292 -9296 -10794 -1 -2 3 0
-9293 -9295 -10794 -2 -1 3 0
-9293 -9296 -10794 -2 3 0
-9299 -9302 -10795 -2 1 0
-9299 -9303 -10795 -2 -3 1 0
-9300 -9302 -10795 -3 -2 1 0
-9300 -9303 -10795 -3 1 0
-9298 -9301 -10796 -1 2 0
-9298 -9303 -10796 -1 -3 2 0
-9300 -9301 -10796 -3 -1 2 0
-9300 -9303 -10796 -3 2 0
-9298 -9301 -10797 -1 3 0
-9298 -9302 -10797 -1 -2 3 0
-9299 -9301 -10797 -2 -1 3 0
-9299 -9302 -10797 -2 3 0
-9305 -9308 -10798 -2 1 0
-9305 -9309 -10798 -2 -3 1 0
-9306 -9308 -10798 -3 -2 1 0
-9306 -9309 -10798 -3 1 0
-9304 -9307 -10799 -1 2 0
-9304 -9309 -10799 -1 -3 2 0
-9306 -9307 -10799 -3 -1 2 0
-9306 -9309 -10799 -3 2 0
-9304 -9307 -10800 -1 3 0
-9304 -9308 -10800 -1 -2 3 0
-9305 -9307 -10800 -2 -1 3 0
-9305 -9308 -10800 -2 3 0
-9311 -9314 -10801 -2 1 0
-9311 -9315 -10801 -2 -3 1 0
-9312 -9314 -10801 -3 -2 1 0
-9312 -9315 -10801 -3 1 0
-9310 -9313 -10802 -1 2 0
-9310 -9315 -10802 -1 -3 2 0
-9312 -9313 -10802 -3 -1 2 0
-9312 -9315 -10802 -3 2 0
-9310 -9313 -10803 -1 3 0
-9310 -9314 -10803 -1 -2 3 0
-9311 -9313 -10803 -2 -1 3 0
-9311 -9314 -10803 -2 3 0
-9317 -9320 -10804 -2 1 0
-9317 -9321 -10804 -2 -3 1 0
-9318 -9320 -10804 -3 -2 1 0
-9318 -9321 -10804 -3 1 0
-9316 -9319 -10805 -1 2 0
-9316 -9321 -10805 -1 -3 2 0
-9318 -9319 -10805 -3 -1 2 0
-9318 -9321 -10805 -3 2 0
-9316 -9319 -10806 -1 3 0
-9316 -9320 -10806 -1 -2 3 0
-9317 -9319 -10806 -2 -1 3 0
-9317 -9320 -10806 -2 3 0
-9323 -9326 -10807 -2 1 0
-9323 -9327 -10807 -2 -3 1 0
-9324 -9326 -10807 -3 -2 1 0
-9324 -9327 -10807 -3 1 0
-9322 -9325 -10808 -1 2 0
-9322 -9327 -10808 -1 -3 2 0
-9324 -9325 -10808 -3 -1 2 0
-9324 -9327 -10808 -3 2 0
-9322 -9325 -10809 -1 3 0
-9322 -9326 -10809 -1 -2 3 0
-9323 -9325 -10809 -2 -1 3 0
-9323 -9326 -10809 -2 3 0
-9329 -9332 -10810 -2 1 0
-9329 -9333 -10810 -2 -3 1 0
-9330 -9332 -10810 -3 -2 1 0
-9330 -9333 -10810 -3 1 0
-9328 -9331 -10811 -1 2 0
-9328 -9333 -10811 -1 -3 2 0
-9330 -9331 -10811 -3 -1 2 0
-9330 -9333 -10811 -3 2 0
-9328 -9331 -10812 -1 3 0
-9328 -9332 -10812 -1 -2 3 0
-9329 -9331 -10812 -2 -1 3 0
-9329 -9332 -10812 -2 3 0
-9335 -9338 -10813 -2 1 0
-9335 -9339 -10813 -2 -3 1 0
-9336 -9338 -10813 -3 -2 1 0
-9336 -9339 -10813 -3 1 0
-9334 -9337 -10814 -1 2 0
-9334 -9339 -10814 -1 -3 2 0
-9336 -9337 -10814 -3 -1 2 0
-9336 -9339 -10814 -3 2 0
-9334 -9337 -10815 -1 3 0
-9334 -9338 -10815 -1 -2 3 0
-9335 -9337 -10815 -2 -1 3 0
-9335 -9338 -10815 -2 3 0
-9341 -9344 -10816 -2 1 0
-9341 -9345 -10816 -2 -3 1 0
-9342 -9344 -10816 -3 -2 1 0
-9342 -9345 -10816 -3 1 0
-9340 -9343 -10817 -1 2 0
-9340 -9345 -10817 -1 -3 2 0
-9342 -9343 -10817 -3 -1 2 0
-9342 -9345 -10817 -3 2 0
-9340 -9343 -10818 -1 3 0
-9340 -9344 -10818 -1 -2 3 0
-9341 -9343 -10818 -2 -1 3 0
-9341 -9344 -10818 -2 3 0
-9347 -9350 -10819 -2 1 0
-9347 -9351 -10819 -2 -3 1 0
-9348 -9350 -10819 -3 -2 1 0
-9348 -9351 -10819 -3 1 0
-9346 -9349 -10820 -1 2 0
-9346 -9351 -10820 -1 -3 2 0
-9348 -9349 -10820 -3 -1 2 0
-9348 -9351 -10820 -3 2 0
-9346 -9349 -10821 -1 3 0
-9346 -9350 -10821 -1 -2 3 0
-9347 -9349 -10821 -2 -1 3 0
-9347 -9350 -10821 -2 3 0
-9353 -9356 -10822 -2 1 0
-9353 -9357 -10822 -2 -3 1 0
-9354 -9356 -10822 -3 -2 1 0
-9354 -9357 -10822 -3 1 0
-9352 -9355 -10823 -1 2 0
-9352 -9357 -10823 -1 -3 2 0
-9354 -9355 -10823 -3 -1 2 0
-9354 -9357 -10823 -3 2 0
-9352 -9355 -10824 -1 3 0
-9352 -9356 -10824 -1 -2 3 0
-9353 -9355 -10824 -2 -1 3 0
-9353 -9356 -10824 -2 3 0
-9359 -9362 -10825 -2 1 0
-9359 -9363 -10825 -2 -3 1 0
-9360 -9362 -10825 -3 -2 1 0
-9360 -9363 -10825 -3 1 0
-9358 -9361 -10826 -1 2 0
-9358 -9363 -10826 -1 -3 2 0
-9360 -9361 -10826 -3 -1 2 0
-9360 -9363 -10826 -3 2 0
-9358 -9361 -10827 -1 3 0
-9358 -9362 -10827 -1 -2 3 0
-9359 -9361 -10827 -2 -1 3 0
-9359 -9362 -10827 -2 3 0
-9365 -9368 -10828 -2 1 0
-9365 -9369 -10828 -2 -3 1 0
-9366 -9368 -10828 -3 -2 1 0
-9366 -9369 -10828 -3 1 0
-9364 -9367 -10829 -1 2 0
-9364 -9369 -10829 -1 -3 2 0
-9366 -9367 -10829 -3 -1 2 0
-9366 -9369 -10829 -3 2 0
-9364 -9367 -10830 -1 3 0
-9364 -9368 -10830 -1 -2 3 0
-9365 -9367 -10830 -2 -1 3 0
-9365 -9368 -10830 -2 3 0
-9371 -9374 -10831 -2 1 0
-9371 -9375 -10831 -2 -3 1 0
-9372 -9374 -10831 -3 -2 1 0
-9372 -9375 -10831 -3 1 0
-9370 -9373 -10832 -1 2 0
-9370 -9375 -10832 -1 -3 2 0
-9372 -9373 -10832 -3 -1 2 0
-9372 -9375 -10832 -3 2 0
-9370 -9373 -10833 -1 3 0
-9370 -9374 -10833 -1 -2 3 0
-9371 -9373 -10833 -2 -1 3 0
-9371 -9374 -10833 -2 3 0
-9377 -9380 -10834 -2 1 0
-9377 -9381 -10834 -2 -3 1 0
-9378 -9380 -10834 -3 -2 1 0
-9378 -9381 -10834 -3 1 0
-9376 -9379 -10835 -1 2 0
-9376 -9381 -10835 -1 -3 2 0
-9378 -9379 -10835 -3 -1 2 0
-9378 -9381 -10835 -3 2 0
-9376 -9379 -10836 -1 3 0
-9376 -9380 -10836 -1 -2 3 0
-9377 -9379 -10836 -2 -1 3 0
-9377 -9380 -10836 -2 3 0
-9383 -9386 -10837 -2 1 0
-9383 -9387 -10837 -2 -3 1 0
-9384 -9386 -10837 -3 -2 1 0
-9384 -9387 -10837 -3 1 0
-9382 -9385 -10838 -1 2 0
-9382 -9387 -10838 -1 -3 2 0
-9384 -9385 -10838 -3 -1 2 0
-9384 -9387 -10838 -3 2 0
-9382 -9385 -10839 -1 3 0
-9382 -9386 -10839 -1 -2 3 0
-9383 -9385 -10839 -2 -1 3 0
-9383 -9386 -10839 -2 3 0
-9389 -9392 -10840 -2 1 0
-9389 -9393 -10840 -2 -3 1 0
-9390 -9392 -10840 -3 -2 1 0
-9390 -9393 -10840 -3 1 0
-9388 -9391 -10841 -1 2 0
-9388 -9393 -10841 -1 -3 2 0
-9390 -9391 -10841 -3 -1 2 0
-9390 -9393 -10841 -3 2 0
-9388 -9391 -10842 -1 3 0
-9388 -9392 -10842 -1 -2 3 0
-9389 -9391 -10842 -2 -1 3 0
-9389 -9392 -10842 -2 3 0
-9395 -9398 -10843 -2 1 0
-9395 -9399 -10843 -2 -3 1 0
-9396 -9398 -10843 -3 -2 1 0
-9396 -9399 -10843 -3 1 0
-9394 -9397 -10844 -1 2 0
-9394 -9399 -10844 -1 -3 2 0
-9396 -9397 -10844 -3 -1 2 0
-9396 -9399 -10844 -3 2 0
-9394 -9397 -10845 -1 3 0
-9394 -9398 -10845 -1 -2 3 0
-9395 -9397 -10845 -2 -1 3 0
-9395 -9398 -10845 -2 3 0
-9401 -9404 -10846 -2 1 0
-9401 -9405 -10846 -2 -3 1 0
-9402 -9404 -10846 -3 -2 1 0
-9402 -9405 -10846 -3 1 0
-9400 -9403 -10847 -1 2 0
-9400 -9405 -10847 -1 -3 2 0
-9402 -9403 -10847 -3 -1 2 0
-9402 -9405 -10847 -3 2 0
-9400 -9403 -10848 -1 3 0
-9400 -9404 -10848 -1 -2 3 0
-9401 -9403 -10848 -2 -1 3 0
-9401 -9404 -10848 -2 3 0
-9407 -9410 -10849 -2 1 0
-9407 -9411 -10849 -2 -3 1 0
-9408 -9410 -10849 -3 -2 1 0
-9408 -9411 -10849 -3 1 0
-9406 -9409 -10850 -1 2 0
-9406 -9411 -10850 -1 -3 2 0
-9408 -9409 -10850 -3 -1 2 0
-9408 -9411 -10850 -3 2 0
-9406 -9409 -10851 -1 3 0
-9406 -9410 -10851 -1 -2 3 0
-9407 -9409 -10851 -2 -1 3 0
-9407 -9410 -10851 -2 3 0
-9413 -9416 -10852 -2 1 0
-9413 -9417 -10852 -2 -3 1 0
-9414 -9416 -10852 -3 -2 1 0
-9414 -9417 -10852 -3 1 0
-9412 -9415 -10853 -1 2 0
-9412 -9417 -10853 -1 -3 2 0
-9414 -9415 -10853 -3 -1 2 0
-9414 -9417 -10853 -3 2 0
-9412 -9415 -10854 -1 3 0
-9412 -9416 -10854 -1 -2 3 0
-9413 -9415 -10854 -2 -1 3 0
-9413 -9416 -10854 -2 3 0
-9419 -9422 -10855 -2 1 0
-9419 -9423 -10855 -2 -3 1 0
-9420 -9422 -10855 -3 -2 1 0
-9420 -9423 -10855 -3 1 0
-9418 -9421 -10856 -1 2 0
-9418 -9423 -10856 -1 -3 2 0
-9420 -9421 -10856 -3 -1 2 0
-9420 -9423 -10856 -3 2 0
-9418 -9421 -10857 -1 3 0
-9418 -9422 -10857 -1 -2 3 0
-9419 -9421 -10857 -2 -1 3 0
-9419 -9422 -10857 -2 3 0
-9425 -9428 -10858 -2 1 0
-9425 -9429 -10858 -2 -3 1 0
-9426 -9428 -10858 -3 -2 1 0
-9426 -9429 -10858 -3 1 0
-9424 -9427 -10859 -1 2 0
-9424 -9429 -10859 -1 -3 2 0
-9426 -9427 -10859 -3 -1 2 0
-9426 -9429 -10859 -3 2 0
-9424 -9427 -10860 -1 3 0
-9424 -9428 -10860 -1 -2 3 0
-9425 -9427 -10860 -2 -1 3 0
-9425 -9428 -10860 -2 3 0
-9431 -9434 -10861 -2 1 0
-9431 -9435 -10861 -2 -3 1 0
-9432 -9434 -10861 -3 -2 1 0
-9432 -9435 -10861 -3 1 0
-9430 -9433 -10862 -1 2 0
-9430 -9435 -10862 -1 -3 2 0
-9432 -9433 -10862 -3 -1 2 0
-9432 -9435 -10862 -3 2 0
-9430 -9433 -10863 -1 3 0
-9430 -9434 -10863 -1 -2 3 0
-9431 -9433 -10863 -2 -1 3 0
-9431 -9434 -10863 -2 3 0
-9437 -9440 -10864 -2 1 0
-9437 -9441 -10864 -2 -3 1 0
-9438 -9440 -10864 -3 -2 1 0
-9438 -9441 -10864 -3 1 0
-9436 -9439 -10865 -1 2 0
-9436 -9441 -10865 -1 -3 2 0
-9438 -9439 -10865 -3 -1 2 0
-9438 -9441 -10865 -3 2 0
-9436 -9439 -10866 -1 3 0
-9436 -9440 -10866 -1 -2 3 0
-9437 -9439 -10866 -2 -1 3 0
-9437 -9440 -10866 -2 3 0
-9443 -9446 -10867 -2 1 0
-9443 -9447 -10867 -2 -3 1 0
-9444 -9446 -10867 -3 -2 1 0
-9444 -9447 -10867 -3 1 0
-9442 -9445 -10868 -1 2 0
-9442 -9447 -10868 -1 -3 2 0
-9444 -9445 -10868 -3 -1 2 0
-9444 -9447 -10868 -3 2 0
-9442 -9445 -10869 -1 3 0
-9442 -9446 -10869 -1 -2 3 0
-9443 -9445 -10869 -2 -1 3 0
-9443 -9446 -10869 -2 3 0
-9449 -9452 -10870 -2 1 0
-9449 -9453 -10870 -2 -3 1 0
-9450 -9452 -10870 -3 -2 1 0
-9450 -9453 -10870 -3 1 0
-9448 -9451 -10871 -1 2 0
-9448 -9453 -10871 -1 -3 2 0
-9450 -9451 -10871 -3 -1 2 0
-9450 -9453 -10871 -3 2 0
-9448 -9451 -10872 -1 3 0
-9448 -9452 -10872 -1 -2 3 0
-9449 -9451 -10872 -2 -1 3 0
-9449 -9452 -10872 -2 3 0
-9455 -9458 -10873 -2 1 0
-9455 -9459 -10873 -2 -3 1 0
-9456 -9458 -10873 -3 -2 1 0
-9456 -9459 -10873 -3 1 0
-9454 -9457 -10874 -1 2 0
-9454 -9459 -10874 -1 -3 2 0
-9456 -9457 -10874 -3 -1 2 0
-9456 -9459 -10874 -3 2 0
-9454 -9457 -10875 -1 3 0
-9454 -9458 -10875 -1 -2 3 0
-9455 -9457 -10875 -2 -1 3 0
-9455 -9458 -10875 -2 3 0
-9461 -9464 -10876 -2 1 0
-9461 -9465 -10876 -2 -3 1 0
-9462 -9464 -10876 -3 -2 1 0
-9462 -9465 -10876 -3 1 0
-9460 -9463 -10877 -1 2 0
-9460 -9465 -10877 -1 -3 2 0
-9462 -9463 -10877 -3 -1 2 0
-9462 -9465 -10877 -3 2 0
-9460 -9463 -10878 -1 3 0
-9460 -9464 -10878 -1 -2 3 0
-9461 -9463 -10878 -2 -1 3 0
-9461 -9464 -10878 -2 3 0
-9467 -9470 -10879 -2 1 0
-9467 -9471 -10879 -2 -3 1 0
-9468 -9470 -10879 -3 -2 1 0
-9468 -9471 -10879 -3 1 0
-9466 -9469 -10880 -1 2 0
-9466 -9471 -10880 -1 -3 2 0
-9468 -9469 -10880 -3 -1 2 0
-9468 -9471 -10880 -3 2 0
-9466 -9469 -10881 -1 3 0
-9466 -9470 -10881 -1 -2 3 0
-9467 -9469 -10881 -2 -1 3 0
-9467 -9470 -10881 -2 3 0
-9473 -9476 -10882 -2 1 0
-9473 -9477 -10882 -2 -3 1 0
-9474 -9476 -10882 -3 -2 1 0
-9474 -9477 -10882 -3 1 0
-9472 -9475 -10883 -1 2 0
-9472 -9477 -10883 -1 -3 2 0
-9474 -9475 -10883 -3 -1 2 0
-9474 -9477 -10883 -3 2 0
-9472 -9475 -10884 -1 3 0
-9472 -9476 -10884 -1 -2 3 0
-9473 -9475 -10884 -2 -1 3 0
-9473 -9476 -10884 -2 3 0
-9479 -9482 -10885 -2 1 0
-9479 -9483 -10885 -2 -3 1 0
-9480 -9482 -10885 -3 -2 1 0
-9480 -9483 -10885 -3 1 0
-9478 -9481 -10886 -1 2 0
-9478 -9483 -10886 -1 -3 2 0
-9480 -9481 -10886 -3 -1 2 0
-9480 -9483 -10886 -3 2 0
-9478 -9481 -10887 -1 3 0
-9478 -9482 -10887 -1 -2 3 0
-9479 -9481 -10887 -2 -1 3 0
-9479 -9482 -10887 -2 3 0
-9485 -9488 -10888 -2 1 0
-9485 -9489 -10888 -2 -3 1 0
-9486 -9488 -10888 -3 -2 1 0
-9486 -9489 -10888 -3 1 0
-9484 -9487 -10889 -1 2 0
-9484 -9489 -10889 -1 -3 2 0
-9486 -9487 -10889 -3 -1 2 0
-9486 -9489 -10889 -3 2 0
-9484 -9487 -10890 -1 3 0
-9484 -9488 -10890 -1 -2 3 0
-9485 -9487 -10890 -2 -1 3 0
-9485 -9488 -10890 -2 3 0
-9491 -9494 -10891 -2 1 0
-9491 -9495 -10891 -2 -3 1 0
-9492 -9494 -10891 -3 -2 1 0
-9492 -9495 -10891 -3 1 0
-9490 -9493 -10892 -1 2 0
-9490 -9495 -10892 -1 -3 2 0
-9492 -9493 -10892 -3 -1 2 0
-9492 -9495 -10892 -3 2 0
-9490 -9493 -10893 -1 3 0
-9490 -9494 -10893 -1 -2 3 0
-9491 -9493 -10893 -2 -1 3 0
-9491 -9494 -10893 -2 3 0
-9497 -9500 -10894 -2 1 0
-9497 -9501 -10894 -2 -3 1 0
-9498 -9500 -10894 -3 -2 1 0
-9498 -9501 -10894 -3 1 0
-9496 -9499 -10895 -1 2 0
-9496 -9501 -10895 -1 -3 2 0
-9498 -9499 -10895 -3 -1 2 0
-9498 -9501 -10895 -3 2 0
-9496 -9499 -10896 -1 3 0
-9496 -9500 -10896 -1 -2 3 0
-9497 -9499 -10896 -2 -1 3 0
-9497 -9500 -10896 -2 3 0
-9503 -9506 -10897 -2 1 0
-9503 -9507 -10897 -2 -3 1 0
-9504 -9506 -10897 -3 -2 1 0
-9504 -9507 -10897 -3 1 0
-9502 -9505 -10898 -1 2 0
-9502 -9507 -10898 -1 -3 2 0
-9504 -9505 -10898 -3 -1 2 0
-9504 -9507 -10898 -3 2 0
-9502 -9505 -10899 -1 3 0
-9502 -9506 -10899 -1 -2 3 0
-9503 -9505 -10899 -2 -1 3 0
-9503 -9506 -10899 -2 3 0
-9509 -9512 -10900 -2 1 0
-9509 -9513 -10900 -2 -3 1 0
-9510 -9512 -10900 -3 -2 1 0
-9510 -9513 -10900 -3 1 0
-9508 -9511 -10901 -1 2 0
-9508 -9513 -10901 -1 -3 2 0
-9510 -9511 -10901 -3 -1 2 0
-9510 -9513 -10901 -3 2 0
-9508 -9511 -10902 -1 3 0
-9508 -9512 -10902 -1 -2 3 0
-9509 -9511 -10902 -2 -1 3 0
-9509 -9512 -10902 -2 3 0
-9515 -9518 -10903 -2 1 0
-9515 -9519 -10903 -2 -3 1 0
-9516 -9518 -10903 -3 -2 1 0
-9516 -9519 -10903 -3 1 0
-9514 -9517 -10904 -1 2 0
-9514 -9519 -10904 -1 -3 2 0
-9516 -9517 -10904 -3 -1 2 0
-9516 -9519 -10904 -3 2 0
-9514 -9517 -10905 -1 3 0
-9514 -9518 -10905 -1 -2 3 0
-9515 -9517 -10905 -2 -1 3 0
-9515 -9518 -10905 -2 3 0
-9521 -9524 -10906 -2 1 0
-9521 -9525 -10906 -2 -3 1 0
-9522 -9524 -10906 -3 -2 1 0
-9522 -9525 -10906 -3 1 0
-9520 -9523 -10907 -1 2 0
-9520 -9525 -10907 -1 -3 2 0
-9522 -9523 -10907 -3 -1 2 0
-9522 -9525 -10907 -3 2 0
-9520 -9523 -10908 -1 3 0
-9520 -9524 -10908 -1 -2 3 0
-9521 -9523 -10908 -2 -1 3 0
-9521 -9524 -10908 -2 3 0
-9527 -9530 -10909 -2 1 0
-9527 -9531 -10909 -2 -3 1 0
-9528 -9530 -10909 -3 -2 1 0
-9528 -9531 -10909 -3 1 0
-9526 -9529 -10910 -1 2 0
-9526 -9531 -10910 -1 -3 2 0
-9528 -9529 -10910 -3 -1 2 0
-9528 -9531 -10910 -3 2 0
-9526 -9529 -10911 -1 3 0
-9526 -9530 -10911 -1 -2 3 0
-9527 -9529 -10911 -2 -1 3 0
-9527 -9530 -10911 -2 3 0
-9533 -9536 -10912 -2 1 0
-9533 -9537 -10912 -2 -3 1 0
-9534 -9536 -10912 -3 -2 1 0
-9534 -9537 -10912 -3 1 0
-9532 -9535 -10913 -1 2 0
-9532 -9537 -10913 -1 -3 2 0
-9534 -9535 -10913 -3 -1 2 0
-9534 -9537 -10913 -3 2 0
-9532 -9535 -10914 -1 3 0
-9532 -9536 -10914 -1 -2 3 0
-9533 -9535 -10914 -2 -1 3 0
-9533 -9536 -10914 -2 3 0
-9539 -9542 -10915 -2 1 0
-9539 -9543 -10915 -2 -3 1 0
-9540 -9542 -10915 -3 -2 1 0
-9540 -9543 -10915 -3 1 0
-9538 -9541 -10916 -1 2 0
-9538 -9543 -10916 -1 -3 2 0
-9540 -9541 -10916 -3 -1 2 0
-9540 -9543 -10916 -3 2 0
-9538 -9541 -10917 -1 3 0
-9538 -9542 -10917 -1 -2 3 0
-9539 -9541 -10917 -2 -1 3 0
-9539 -9542 -10917 -2 3 0
-9545 -9548 -10918 -2 1 0
-9545 -9549 -10918 -2 -3 1 0
-9546 -9548 -10918 -3 -2 1 0
-9546 -9549 -10918 -3 1 0
-9544 -9547 -10919 -1 2 0
-9544 -9549 -10919 -1 -3 2 0
-9546 -9547 -10919 -3 -1 2 0
-9546 -9549 -10919 -3 2 0
-9544 -9547 -10920 -1 3 0
-9544 -9548 -10920 -1 -2 3 0
-9545 -9547 -10920 -2 -1 3 0
-9545 -9548 -10920 -2 3 0
-9551 -9554 -10921 -2 1 0
-9551 -9555 -10921 -2 -3 1 0
-9552 -9554 -10921 -3 -2 1 0
-9552 -9555 -10921 -3 1 0
-9550 -9553 -10922 -1 2 0
-9550 -9555 -10922 -1 -3 2 0
-9552 -9553 -10922 -3 -1 2 0
-9552 -9555 -10922 -3 2 0
-9550 -9553 -10923 -1 3 0
-9550 -9554 -10923 -1 -2 3 0
-9551 -9553 -10923 -2 -1 3 0
-9551 -9554 -10923 -2 3 0
-9557 -9560 -10924 -2 1 0
-9557 -9561 -10924 -2 -3 1 0
-9558 -9560 -10924 -3 -2 1 0
-9558 -9561 -10924 -3 1 0
-9556 -9559 -10925 -1 2 0
-9556 -9561 -10925 -1 -3 2 0
-9558 -9559 -10925 -3 -1 2 0
-9558 -9561 -10925 -3 2 0
-9556 -9559 -10926 -1 3 0
-9556 -9560 -10926 -1 -2 3 0
-9557 -9559 -10926 -2 -1 3 0
-9557 -9560 -10926 -2 3 0
-9563 -9566 -10927 -2 1 0
-9563 -9567 -10927 -2 -3 1 0
-9564 -9566 -10927 -3 -2 1 0
-9564 -9567 -10927 -3 1 0
-9562 -9565 -10928 -1 2 0
-9562 -9567 -10928 -1 -3 2 0
-9564 -9565 -10928 -3 -1 2 0
-9564 -9567 -10928 -3 2 0
-9562 -9565 -10929 -1 3 0
-9562 -9566 -10929 -1 -2 3 0
-9563 -9565 -10929 -2 -1 3 0
-9563 -9566 -10929 -2 3 0
-9569 -9572 -10930 -2 1 0
-9569 -9573 -10930 -2 -3 1 0
-9570 -9572 -10930 -3 -2 1 0
-9570 -9573 -10930 -3 1 0
-9568 -9571 -10931 -1 2 0
-9568 -9573 -10931 -1 -3 2 0
-9570 -9571 -10931 -3 -1 2 0
-9570 -9573 -10931 -3 2 0
-9568 -9571 -10932 -1 3 0
-9568 -9572 -10932 -1 -2 3 0
-9569 -9571 -10932 -2 -1 3 0
-9569 -9572 -10932 -2 3 0
-9575 -9578 -10933 -2 1 0
-9575 -9579 -10933 -2 -3 1 0
-9576 -9578 -10933 -3 -2 1 0
-9576 -9579 -10933 -3 1 0
-9574 -9577 -10934 -1 2 0
-9574 -9579 -10934 -1 -3 2 0
-9576 -9577 -10934 -3 -1 2 0
-9576 -9579 -10934 -3 2 0
-9574 -9577 -10935 -1 3 0
-9574 -9578 -10935 -1 -2 3 0
-9575 -9577 -10935 -2 -1 3 0
-9575 -9578 -10935 -2 3 0
-9581 -9584 -10936 -2 1 0
-9581 -9585 -10936 -2 -3 1 0
-9582 -9584 -10936 -3 -2 1 0
-9582 -9585 -10936 -3 1 0
-9580 -9583 -10937 -1 2 0
-9580 -9585 -10937 -1 -3 2 0
-9582 -9583 -10937 -3 -1 2 0
-9582 -9585 -10937 -3 2 0
-9580 -9583 -10938 -1 3 0
-9580 -9584 -10938 -1 -2 3 0
-9581 -9583 -10938 -2 -1 3 0
-9581 -9584 -10938 -2 3 0
-9587 -9590 -10939 -2 1 0
-9587 -9591 -10939 -2 -3 1 0
-9588 -9590 -10939 -3 -2 1 0
-9588 -9591 -10939 -3 1 0
-9586 -9589 -10940 -1 2 0
-9586 -9591 -10940 -1 -3 2 0
-9588 -9589 -10940 -3 -1 2 0
-9588 -9591 -10940 -3 2 0
-9586 -9589 -10941 -1 3 0
-9586 -9590 -10941 -1 -2 3 0
-9587 -9589 -10941 -2 -1 3 0
-9587 -9590 -10941 -2 3 0
-9593 -9596 -10942 -2 1 0
-9593 -9597 -10942 -2 -3 1 0
-9594 -9596 -10942 -3 -2 1 0
-9594 -9597 -10942 -3 1 0
-9592 -9595 -10943 -1 2 0
-9592 -9597 -10943 -1 -3 2 0
-9594 -9595 -10943 -3 -1 2 0
-9594 -9597 -10943 -3 2 0
-9592 -9595 -10944 -1 3 0
-9592 -9596 -10944 -1 -2 3 0
-9593 -9595 -10944 -2 -1 3 0
-9593 -9596 -10944 -2 3 0
-9599 -9602 -10945 -2 1 0
-9599 -9603 -10945 -2 -3 1 0
-9600 -9602 -10945 -3 -2 1 0
-9600 -9603 -10945 -3 1 0
-9598 -9601 -10946 -1 2 0
-9598 -9603 -10946 -1 -3 2 0
-9600 -9601 -10946 -3 -1 2 0
-9600 -9603 -10946 -3 2 0
-9598 -9601 -10947 -1 3 0
-9598 -9602 -10947 -1 -2 3 0
-9599 -9601 -10947 -2 -1 3 0
-9599 -9602 -10947 -2 3 0
-9605 -9608 -10948 -2 1 0
-9605 -9609 -10948 -2 -3 1 0
-9606 -9608 -10948 -3 -2 1 0
-9606 -9609 -10948 -3 1 0
-9604 -9607 -10949 -1 2 0
-9604 -9609 -10949 -1 -3 2 0
-9606 -9607 -10949 -3 -1 2 0
-9606 -9609 -10949 -3 2 0
-9604 -9607 -10950 -1 3 0
-9604 -9608 -10950 -1 -2 3 0
-9605 -9607 -10950 -2 -1 3 0
-9605 -9608 -10950 -2 3 0
-9611 -9614 -10951 -2 1 0
-9611 -9615 -10951 -2 -3 1 0
-9612 -9614 -10951 -3 -2 1 0
-9612 -9615 -10951 -3 1 0
-9610 -9613 -10952 -1 2 0
-9610 -9615 -10952 -1 -3 2 0
-9612 -9613 -10952 -3 -1 2 0
-9612 -9615 -10952 -3 2 0
-9610 -9613 -10953 -1 3 0
-9610 -9614 -10953 -1 -2 3 0
-9611 -9613 -10953 -2 -1 3 0
-9611 -9614 -10953 -2 3 0
-9617 -9620 -10954 -2 1 0
-9617 -9621 -10954 -2 -3 1 0
-9618 -9620 -10954 -3 -2 1 0
-9618 -9621 -10954 -3 1 0
-9616 -9619 -10955 -1 2 0
-9616 -9621 -10955 -1 -3 2 0
-9618 -9619 -10955 -3 -1 2 0
-9618 -9621 -10955 -3 2 0
-9616 -9619 -10956 -1 3 0
-9616 -9620 -10956 -1 -2 3 0
-9617 -9619 -10956 -2 -1 3 0
-9617 -9620 -10956 -2 3 0
-9623 -9626 -10957 -2 1 0
-9623 -9627 -10957 -2 -3 1 0
-9624 -9626 -10957 -3 -2 1 0
-9624 -9627 -10957 -3 1 0
-9622 -9625 -10958 -1 2 0
-9622 -9627 -10958 -1 -3 2 0
-9624 -9625 -10958 -3 -1 2 0
-9624 -9627 -10958 -3 2 0
-9622 -9625 -10959 -1 3 0
-9622 -9626 -10959 -1 -2 3 0
-9623 -9625 -10959 -2 -1 3 0
-9623 -9626 -10959 -2 3 0
-9629 -9632 -10960 -2 1 0
-9629 -9633 -10960 -2 -3 1 0
-9630 -9632 -10960 -3 -2 1 0
-9630 -9633 -10960 -3 1 0
-9628 -9631 -10961 -1 2 0
-9628 -9633 -10961 -1 -3 2 0
-9630 -9631 -10961 -3 -1 2 0
-9630 -9633 -10961 -3 2 0
-9628 -9631 -10962 -1 3 0
-9628 -9632 -10962 -1 -2 3 0
-9629 -9631 -10962 -2 -1 3 0
-9629 -9632 -10962 -2 3 0
-9635 -9638 -10963 -2 1 0
-9635 -9639 -10963 -2 -3 1 0
-9636 -9638 -10963 -3 -2 1 0
-9636 -9639 -10963 -3 1 0
-9634 -9637 -10964 -1 2 0
-9634 -9639 -10964 -1 -3 2 0
-9636 -9637 -10964 -3 -1 2 0
-9636 -9639 -10964 -3 2 0
-9634 -9637 -10965 -1 3 0
-9634 -9638 -10965 -1 -2 3 0
-9635 -9637 -10965 -2 -1 3 0
-9635 -9638 -10965 -2 3 0
-9641 -9644 -10966 -2 1 0
-9641 -9645 -10966 -2 -3 1 0
-9642 -9644 -10966 -3 -2 1 0
-9642 -9645 -10966 -3 1 0
-9640 -9643 -10967 -1 2 0
-9640 -9645 -10967 -1 -3 2 0
-9642 -9643 -10967 -3 -1 2 0
-9642 -9645 -10967 -3 2 0
-9640 -9643 -10968 -1 3 0
-9640 -9644 -10968 -1 -2 3 0
-9641 -9643 -10968 -2 -1 3 0
-9641 -9644 -10968 -2 3 0
-9647 -9650 -10969 -2 1 0
-9647 -9651 -10969 -2 -3 1 0
-9648 -9650 -10969 -3 -2 1 0
-9648 -9651 -10969 -3 1 0
-9646 -9649 -10970 -1 2 0
-9646 -9651 -10970 -1 -3 2 0
-9648 -9649 -10970 -3 -1 2 0
-9648 -9651 -10970 -3 2 0
-9646 -9649 -10971 -1 3 0
-9646 -9650 -10971 -1 -2 3 0
-9647 -9649 -10971 -2 -1 3 0
-9647 -9650 -10971 -2 3 0
-9653 -9656 -10972 -2 1 0
-9653 -9657 -10972 -2 -3 1 0
-9654 -9656 -10972 -3 -2 1 0
-9654 -9657 -10972 -3 1 0
-9652 -9655 -10973 -1 2 0
-9652 -9657 -10973 -1 -3 2 0
-9654 -9655 -10973 -3 -1 2 0
-9654 -9657 -10973 -3 2 0
-9652 -9655 -10974 -1 3 0
-9652 -9656 -10974 -1 -2 3 0
-9653 -9655 -10974 -2 -1 3 0
-9653 -9656 -10974 -2 3 0
-9659 -9662 -10975 -2 1 0
-9659 -9663 -10975 -2 -3 1 0
-9660 -9662 -10975 -3 -2 1 0
-9660 -9663 -10975 -3 1 0
-9658 -9661 -10976 -1 2 0
-9658 -9663 -10976 -1 -3 2 0
-9660 -9661 -10976 -3 -1 2 0
-9660 -9663 -10976 -3 2 0
-9658 -9661 -10977 -1 3 0
-9658 -9662 -10977 -1 -2 3 0
-9659 -9661 -10977 -2 -1 3 0
-9659 -9662 -10977 -2 3 0
-9665 -9668 -10978 -2 1 0
-9665 -9669 -10978 -2 -3 1 0
-9666 -9668 -10978 -3 -2 1 0
-9666 -9669 -10978 -3 1 0
-9664 -9667 -10979 -1 2 0
-9664 -9669 -10979 -1 -3 2 0
-9666 -9667 -10979 -3 -1 2 0
-9666 -9669 -10979 -3 2 0
-9664 -9667 -10980 -1 3 0
-9664 -9668 -10980 -1 -2 3 0
-9665 -9667 -10980 -2 -1 3 0
-9665 -9668 -10980 -2 3 0
-9671 -9674 -10981 -2 1 0
-9671 -9675 -10981 -2 -3 1 0
-9672 -9674 -10981 -3 -2 1 0
-9672 -9675 -10981 -3 1 0
-9670 -9673 -10982 -1 2 0
-9670 -9675 -10982 -1 -3 2 0
-9672 -9673 -10982 -3 -1 2 0
-9672 -9675 -10982 -3 2 0
-9670 -9673 -10983 -1 3 0
-9670 -9674 -10983 -1 -2 3 0
-9671 -9673 -10983 -2 -1 3 0
-9671 -9674 -10983 -2 3 0
-9677 -9680 -10984 -2 1 0
-9677 -9681 -10984 -2 -3 1 0
-9678 -9680 -10984 -3 -2 1 0
-9678 -9681 -10984 -3 1 0
-9676 -9679 -10985 -1 2 0
-9676 -9681 -10985 -1 -3 2 0
-9678 -9679 -10985 -3 -1 2 0
-9678 -9681 -10985 -3 2 0
-9676 -9679 -10986 -1 3 0
-9676 -9680 -10986 -1 -2 3 0
-9677 -9679 -10986 -2 -1 3 0
-9677 -9680 -10986 -2 3 0
-9683 -9686 -10987 -2 1 0
-9683 -9687 -10987 -2 -3 1 0
-9684 -9686 -10987 -3 -2 1 0
-9684 -9687 -10987 -3 1 0
-9682 -9685 -10988 -1 2 0
-9682 -9687 -10988 -1 -3 2 0
-9684 -9685 -10988 -3 -1 2 0
-9684 -9687 -10988 -3 2 0
-9682 -9685 -10989 -1 3 0
-9682 -9686 -10989 -1 -2 3 0
-9683 -9685 -10989 -2 -1 3 0
-9683 -9686 -10989 -2 3 0
-9689 -9692 -10990 -2 1 0
-9689 -9693 -10990 -2 -3 1 0
-9690 -9692 -10990 -3 -2 1 0
-9690 -9693 -10990 -3 1 0
-9688 -9691 -10991 -1 2 0
-9688 -9693 -10991 -1 -3 2 0
-9690 -9691 -10991 -3 -1 2 0
-9690 -9693 -10991 -3 2 0
-9688 -9691 -10992 -1 3 0
-9688 -9692 -10992 -1 -2 3 0
-9689 -9691 -10992 -2 -1 3 0
-9689 -9692 -10992 -2 3 0
-9695 -9698 -10993 -2 1 0
-9695 -9699 -10993 -2 -3 1 0
-9696 -9698 -10993 -3 -2 1 0
-9696 -9699 -10993 -3 1 0
-9694 -9697 -10994 -1 2 0
-9694 -9699 -10994 -1 -3 2 0
-9696 -9697 -10994 -3 -1 2 0
-9696 -9699 -10994 -3 2 0
-9694 -9697 -10995 -1 3 0
-9694 -9698 -10995 -1 -2 3 0
-9695 -9697 -10995 -2 -1 3 0
-9695 -9698 -10995 -2 3 0
-9701 -9704 -10996 -2 1 0
-9701 -9705 -10996 -2 -3 1 0
-9702 -9704 -10996 -3 -2 1 0
-9702 -9705 -10996 -3 1 0
-9700 -9703 -10997 -1 2 0
-9700 -9705 -10997 -1 -3 2 0
-9702 -9703 -10997 -3 -1 2 0
-9702 -9705 -10997 -3 2 0
-9700 -9703 -10998 -1 3 0
-9700 -9704 -10998 -1 -2 3 0
-9701 -9703 -10998 -2 -1 3 0
-9701 -9704 -10998 -2 3 0
-9707 -9710 -10999 -2 1 0
-9707 -9711 -10999 -2 -3 1 0
-9708 -9710 -10999 -3 -2 1 0
-9708 -9711 -10999 -3 1 0
-9706 -9709 -11000 -1 2 0
-9706 -9711 -11000 -1 -3 2 0
-9708 -9709 -11000 -3 -1 2 0
-9708 -9711 -11000 -3 2 0
-9706 -9709 -11001 -1 3 0
-9706 -9710 -11001 -1 -2 3 0
-9707 -9709 -11001 -2 -1 3 0
-9707 -9710 -11001 -2 3 0
-9713 -9716 -11002 -2 1 0
-9713 -9717 -11002 -2 -3 1 0
-9714 -9716 -11002 -3 -2 1 0
-9714 -9717 -11002 -3 1 0
-9712 -9715 -11003 -1 2 0
-9712 -9717 -11003 -1 -3 2 0
-9714 -9715 -11003 -3 -1 2 0
-9714 -9717 -11003 -3 2 0
-9712 -9715 -11004 -1 3 0
-9712 -9716 -11004 -1 -2 3 0
-9713 -9715 -11004 -2 -1 3 0
-9713 -9716 -11004 -2 3 0
-9719 -9722 -11005 -2 1 0
-9719 -9723 -11005 -2 -3 1 0
-9720 -9722 -11005 -3 -2 1 0
-9720 -9723 -11005 -3 1 0
-9718 -9721 -11006 -1 2 0
-9718 -9723 -11006 -1 -3 2 0
-9720 -9721 -11006 -3 -1 2 0
-9720 -9723 -11006 -3 2 0
-9718 -9721 -11007 -1 3 0
-9718 -9722 -11007 -1 -2 3 0
-9719 -9721 -11007 -2 -1 3 0
-9719 -9722 -11007 -2 3 0
-9725 -9728 -11008 -2 1 0
-9725 -9729 -11008 -2 -3 1 0
-9726 -9728 -11008 -3 -2 1 0
-9726 -9729 -11008 -3 1 0
-9724 -9727 -11009 -1 2 0
-9724 -9729 -11009 -1 -3 2 0
-9726 -9727 -11009 -3 -1 2 0
-9726 -9729 -11009 -3 2 0
-9724 -9727 -11010 -1 3 0
-9724 -9728 -11010 -1 -2 3 0
-9725 -9727 -11010 -2 -1 3 0
-9725 -9728 -11010 -2 3 0
-9731 -9734 -11011 -2 1 0
-9731 -9735 -11011 -2 -3 1 0
-9732 -9734 -11011 -3 -2 1 0
-9732 -9735 -11011 -3 1 0
-9730 -9733 -11012 -1 2 0
-9730 -9735 -11012 -1 -3 2 0
-9732 -9733 -11012 -3 -1 2 0
-9732 -9735 -11012 -3 2 0
-9730 -9733 -11013 -1 3 0
-9730 -9734 -11013 -1 -2 3 0
-9731 -9733 -11013 -2 -1 3 0
-9731 -9734 -11013 -2 3 0
-9737 -9740 -11014 -2 1 0
-9737 -9741 -11014 -2 -3 1 0
-9738 -9740 -11014 -3 -2 1 0
-9738 -9741 -11014 -3 1 0
-9736 -9739 -11015 -1 2 0
-9736 -9741 -11015 -1 -3 2 0
-9738 -9739 -11015 -3 -1 2 0
-9738 -9741 -11015 -3 2 0
-9736 -9739 -11016 -1 3 0
-9736 -9740 -11016 -1 -2 3 0
-9737 -9739 -11016 -2 -1 3 0
-9737 -9740 -11016 -2 3 0
-9743 -9746 -11017 -2 1 0
-9743 -9747 -11017 -2 -3 1 0
-9744 -9746 -11017 -3 -2 1 0
-9744 -9747 -11017 -3 1 0
-9742 -9745 -11018 -1 2 0
-9742 -9747 -11018 -1 -3 2 0
-9744 -9745 -11018 -3 -1 2 0
-9744 -9747 -11018 -3 2 0
-9742 -9745 -11019 -1 3 0
-9742 -9746 -11019 -1 -2 3 0
-9743 -9745 -11019 -2 -1 3 0
-9743 -9746 -11019 -2 3 0
-9749 -9752 -11020 -2 1 0
-9749 -9753 -11020 -2 -3 1 0
-9750 -9752 -11020 -3 -2 1 0
-9750 -9753 -11020 -3 1 0
-9748 -9751 -11021 -1 2 0
-9748 -9753 -11021 -1 -3 2 0
-9750 -9751 -11021 -3 -1 2 0
-9750 -9753 -11021 -3 2 0
-9748 -9751 -11022 -1 3 0
-9748 -9752 -11022 -1 -2 3 0
-9749 -9751 -11022 -2 -1 3 0
-9749 -9752 -11022 -2 3 0
-9755 -9758 -11023 -2 1 0
-9755 -9759 -11023 -2 -3 1 0
-9756 -9758 -11023 -3 -2 1 0
-9756 -9759 -11023 -3 1 0
-9754 -9757 -11024 -1 2 0
-9754 -9759 -11024 -1 -3 2 0
-9756 -9757 -11024 -3 -1 2 0
-9756 -9759 -11024 -3 2 0
-9754 -9757 -11025 -1 3 0
-9754 -9758 -11025 -1 -2 3 0
-9755 -9757 -11025 -2 -1 3 0
-9755 -9758 -11025 -2 3 0
-9761 -9764 -11026 -2 1 0
-9761 -9765 -11026 -2 -3 1 0
-9762 -9764 -11026 -3 -2 1 0
-9762 -9765 -11026 -3 1 0
-9760 -9763 -11027 -1 2 0
-9760 -9765 -11027 -1 -3 2 0
-9762 -9763 -11027 -3 -1 2 0
-9762 -9765 -11027 -3 2 0
-9760 -9763 -11028 -1 3 0
-9760 -9764 -11028 -1 -2 3 0
-9761 -9763 -11028 -2 -1 3 0
-9761 -9764 -11028 -2 3 0
-9767 -9770 -11029 -2 1 0
-9767 -9771 -11029 -2 -3 1 0
-9768 -9770 -11029 -3 -2 1 0
-9768 -9771 -11029 -3 1 0
-9766 -9769 -11030 -1 2 0
-9766 -9771 -11030 -1 -3 2 0
-9768 -9769 -11030 -3 -1 2 0
-9768 -9771 -11030 -3 2 0
-9766 -9769 -11031 -1 3 0
-9766 -9770 -11031 -1 -2 3 0
-9767 -9769 -11031 -2 -1 3 0
-9767 -9770 -11031 -2 3 0
-9773 -9776 -11032 -2 1 0
-9773 -9777 -11032 -2 -3 1 0
-9774 -9776 -11032 -3 -2 1 0
-9774 -9777 -11032 -3 1 0
-9772 -9775 -11033 -1 2 0
-9772 -9777 -11033 -1 -3 2 0
-9774 -9775 -11033 -3 -1 2 0
-9774 -9777 -11033 -3 2 0
-9772 -9775 -11034 -1 3 0
-9772 -9776 -11034 -1 -2 3 0
-9773 -9775 -11034 -2 -1 3 0
-9773 -9776 -11034 -2 3 0
-9779 -9782 -11035 -2 1 0
-9779 -9783 -11035 -2 -3 1 0
-9780 -9782 -11035 -3 -2 1 0
-9780 -9783 -11035 -3 1 0
-9778 -9781 -11036 -1 2 0
-9778 -9783 -11036 -1 -3 2 0
-9780 -9781 -11036 -3 -1 2 0
-9780 -9783 -11036 -3 2 0
-9778 -9781 -11037 -1 3 0
-9778 -9782 -11037 -1 -2 3 0
-9779 -9781 -11037 -2 -1 3 0
-9779 -9782 -11037 -2 3 0
-9785 -9788 -11038 -2 1 0
-9785 -9789 -11038 -2 -3 1 0
-9786 -9788 -11038 -3 -2 1 0
-9786 -9789 -11038 -3 1 0
-9784 -9787 -11039 -1 2 0
-9784 -9789 -11039 -1 -3 2 0
-9786 -9787 -11039 -3 -1 2 0
-9786 -9789 -11039 -3 2 0
-9784 -9787 -11040 -1 3 0
-9784 -9788 -11040 -1 -2 3 0
-9785 -9787 -11040 -2 -1 3 0
-9785 -9788 -11040 -2 3 0
-9791 -9794 -11041 -2 1 0
-9791 -9795 -11041 -2 -3 1 0
-9792 -9794 -11041 -3 -2 1 0
-9792 -9795 -11041 -3 1 0
-9790 -9793 -11042 -1 2 0
-9790 -9795 -11042 -1 -3 2 0
-9792 -9793 -11042 -3 -1 2 0
-9792 -9795 -11042 -3 2 0
-9790 -9793 -11043 -1 3 0
-9790 -9794 -11043 -1 -2 3 0
-9791 -9793 -11043 -2 -1 3 0
-9791 -9794 -11043 -2 3 0
-9797 -9800 -11044 -2 1 0
-9797 -9801 -11044 -2 -3 1 0
-9798 -9800 -11044 -3 -2 1 0
-9798 -9801 -11044 -3 1 0
-9796 -9799 -11045 -1 2 0
-9796 -9801 -11045 -1 -3 2 0
-9798 -9799 -11045 -3 -1 2 0
-9798 -9801 -11045 -3 2 0
-9796 -9799 -11046 -1 3 0
-9796 -9800 -11046 -1 -2 3 0
-9797 -9799 -11046 -2 -1 3 0
-9797 -9800 -11046 -2 3 0
-9803 -9806 -11047 -2 1 0
-9803 -9807 -11047 -2 -3 1 0
-9804 -9806 -11047 -3 -2 1 0
-9804 -9807 -11047 -3 1 0
-9802 -9805 -11048 -1 2 0
-9802 -9807 -11048 -1 -3 2 0
-9804 -9805 -11048 -3 -1 2 0
-9804 -9807 -11048 -3 2 0
-9802 -9805 -11049 -1 3 0
-9802 -9806 -11049 -1 -2 3 0
-9803 -9805 -11049 -2 -1 3 0
-9803 -9806 -11049 -2 3 0
-9809 -9812 -11050 -2 1 0
-9809 -9813 -11050 -2 -3 1 0
-9810 -9812 -11050 -3 -2 1 0
-9810 -9813 -11050 -3 1 0
-9808 -9811 -11051 -1 2 0
-9808 -9813 -11051 -1 -3 2 0
-9810 -9811 -11051 -3 -1 2 0
-9810 -9813 -11051 -3 2 0
-9808 -9811 -11052 -1 3 0
-9808 -9812 -11052 -1 -2 3 0
-9809 -9811 -11052 -2 -1 3 0
-9809 -9812 -11052 -2 3 0
-9815 -9818 -11053 -2 1 0
-9815 -9819 -11053 -2 -3 1 0
-9816 -9818 -11053 -3 -2 1 0
-9816 -9819 -11053 -3 1 0
-9814 -9817 -11054 -1 2 0
-9814 -9819 -11054 -1 -3 2 0
-9816 -9817 -11054 -3 -1 2 0
-9816 -9819 -11054 -3 2 0
-9814 -9817 -11055 -1 3 0
-9814 -9818 -11055 -1 -2 3 0
-9815 -9817 -11055 -2 -1 3 0
-9815 -9818 -11055 -2 3 0
-9821 -9824 -11056 -2 1 0
-9821 -9825 -11056 -2 -3 1 0
-9822 -9824 -11056 -3 -2 1 0
-9822 -9825 -11056 -3 1 0
-9820 -9823 -11057 -1 2 0
-9820 -9825 -11057 -1 -3 2 0
-9822 -9823 -11057 -3 -1 2 0
-9822 -9825 -11057 -3 2 0
-9820 -9823 -11058 -1 3 0
-9820 -9824 -11058 -1 -2 3 0
-9821 -9823 -11058 -2 -1 3 0
-9821 -9824 -11058 -2 3 0
-9827 -9830 -11059 -2 1 0
-9827 -9831 -11059 -2 -3 1 0
-9828 -9830 -11059 -3 -2 1 0
-9828 -9831 -11059 -3 1 0
-9826 -9829 -11060 -1 2 0
-9826 -9831 -11060 -1 -3 2 0
-9828 -9829 -11060 -3 -1 2 0
-9828 -9831 -11060 -3 2 0
-9826 -9829 -11061 -1 3 0
-9826 -9830 -11061 -1 -2 3 0
-9827 -9829 -11061 -2 -1 3 0
-9827 -9830 -11061 -2 3 0
-9833 -9836 -11062 -2 1 0
-9833 -9837 -11062 -2 -3 1 0
-9834 -9836 -11062 -3 -2 1 0
-9834 -9837 -11062 -3 1 0
-9832 -9835 -11063 -1 2 0
-9832 -9837 -11063 -1 -3 2 0
-9834 -9835 -11063 -3 -1 2 0
-9834 -9837 -11063 -3 2 0
-9832 -9835 -11064 -1 3 0
-9832 -9836 -11064 -1 -2 3 0
-9833 -9835 -11064 -2 -1 3 0
-9833 -9836 -11064 -2 3 0
-9839 -9842 -11065 -2 1 0
-9839 -9843 -11065 -2 -3 1 0
-9840 -9842 -11065 -3 -2 1 0
-9840 -9843 -11065 -3 1 0
-9838 -9841 -11066 -1 2 0
-9838 -9843 -11066 -1 -3 2 0
-9840 -9841 -11066 -3 -1 2 0
-9840 -9843 -11066 -3 2 0
-9838 -9841 -11067 -1 3 0
-9838 -9842 -11067 -1 -2 3 0
-9839 -9841 -11067 -2 -1 3 0
-9839 -9842 -11067 -2 3 0
-9845 -9848 -11068 -2 1 0
-9845 -9849 -11068 -2 -3 1 0
-9846 -9848 -11068 -3 -2 1 0
-9846 -9849 -11068 -3 1 0
-9844 -9847 -11069 -1 2 0
-9844 -9849 -11069 -1 -3 2 0
-9846 -9847 -11069 -3 -1 2 0
-9846 -9849 -11069 -3 2 0
-9844 -9847 -11070 -1 3 0
-9844 -9848 -11070 -1 -2 3 0
-9845 -9847 -11070 -2 -1 3 0
-9845 -9848 -11070 -2 3 0
-9851 -9854 -11071 -2 1 0
-9851 -9855 -11071 -2 -3 1 0
-9852 -9854 -11071 -3 -2 1 0
-9852 -9855 -11071 -3 1 0
-9850 -9853 -11072 -1 2 0
-9850 -9855 -11072 -1 -3 2 0
-9852 -9853 -11072 -3 -1 2 0
-9852 -9855 -11072 -3 2 0
-9850 -9853 -11073 -1 3 0
-9850 -9854 -11073 -1 -2 3 0
-9851 -9853 -11073 -2 -1 3 0
-9851 -9854 -11073 -2 3 0
-9857 -9860 -11074 -2 1 0
-9857 -9861 -11074 -2 -3 1 0
-9858 -9860 -11074 -3 -2 1 0
-9858 -9861 -11074 -3 1 0
-9856 -9859 -11075 -1 2 0
-9856 -9861 -11075 -1 -3 2 0
-9858 -9859 -11075 -3 -1 2 0
-9858 -9861 -11075 -3 2 0
-9856 -9859 -11076 -1 3 0
-9856 -9860 -11076 -1 -2 3 0
-9857 -9859 -11076 -2 -1 3 0
-9857 -9860 -11076 -2 3 0
-9863 -9866 -11077 -2 1 0
-9863 -9867 -11077 -2 -3 1 0
-9864 -9866 -11077 -3 -2 1 0
-9864 -9867 -11077 -3 1 0
-9862 -9865 -11078 -1 2 0
-9862 -9867 -11078 -1 -3 2 0
-9864 -9865 -11078 -3 -1 2 0
-9864 -9867 -11078 -3 2 0
-9862 -9865 -11079 -1 3 0
-9862 -9866 -11079 -1 -2 3 0
-9863 -9865 -11079 -2 -1 3 0
-9863 -9866 -11079 -2 3 0
-9869 -9872 -11080 -2 1 0
-9869 -9873 -11080 -2 -3 1 0
-9870 -9872 -11080 -3 -2 1 0
-9870 -9873 -11080 -3 1 0
-9868 -9871 -11081 -1 2 0
-9868 -9873 -11081 -1 -3 2 0
-9870 -9871 -11081 -3 -1 2 0
-9870 -9873 -11081 -3 2 0
-9868 -9871 -11082 -1 3 0
-9868 -9872 -11082 -1 -2 3 0
-9869 -9871 -11082 -2 -1 3 0
-9869 -9872 -11082 -2 3 0
-9875 -9878 -11083 -2 1 0
-9875 -9879 -11083 -2 -3 1 0
-9876 -9878 -11083 -3 -2 1 0
-9876 -9879 -11083 -3 1 0
-9874 -9877 -11084 -1 2 0
-9874 -9879 -11084 -1 -3 2 0
-9876 -9877 -11084 -3 -1 2 0
-9876 -9879 -11084 -3 2 0
-9874 -9877 -11085 -1 3 0
-9874 -9878 -11085 -1 -2 3 0
-9875 -9877 -11085 -2 -1 3 0
-9875 -9878 -11085 -2 3 0
-9881 -9884 -11086 -2 1 0
-9881 -9885 -11086 -2 -3 1 0
-9882 -9884 -11086 -3 -2 1 0
-9882 -9885 -11086 -3 1 0
-9880 -9883 -11087 -1 2 0
-9880 -9885 -11087 -1 -3 2 0
-9882 -9883 -11087 -3 -1 2 0
-9882 -9885 -11087 -3 2 0
-9880 -9883 -11088 -1 3 0
-9880 -9884 -11088 -1 -2 3 0
-9881 -9883 -11088 -2 -1 3 0
-9881 -9884 -11088 -2 3 0
-9887 -9890 -11089 -2 1 0
-9887 -9891 -11089 -2 -3 1 0
-9888 -9890 -11089 -3 -2 1 0
-9888 -9891 -11089 -3 1 0
-9886 -9889 -11090 -1 2 0
-9886 -9891 -11090 -1 -3 2 0
-9888 -9889 -11090 -3 -1 2 0
-9888 -9891 -11090 -3 2 0
-9886 -9889 -11091 -1 3 0
-9886 -9890 -11091 -1 -2 3 0
-9887 -9889 -11091 -2 -1 3 0
-9887 -9890 -11091 -2 3 0
-9893 -9896 -11092 -2 1 0
-9893 -9897 -11092 -2 -3 1 0
-9894 -9896 -11092 -3 -2 1 0
-9894 -9897 -11092 -3 1 0
-9892 -9895 -11093 -1 2 0
-9892 -9897 -11093 -1 -3 2 0
-9894 -9895 -11093 -3 -1 2 0
-9894 -9897 -11093 -3 2 0
-9892 -9895 -11094 -1 3 0
-9892 -9896 -11094 -1 -2 3 0
-9893 -9895 -11094 -2 -1 3 0
-9893 -9896 -11094 -2 3 0
-9899 -9902 -11095 -2 1 0
-9899 -9903 -11095 -2 -3 1 0
-9900 -9902 -11095 -3 -2 1 0
-9900 -9903 -11095 -3 1 0
-9898 -9901 -11096 -1 2 0
-9898 -9903 -11096 -1 -3 2 0
-9900 -9901 -11096 -3 -1 2 0
-9900 -9903 -11096 -3 2 0
-9898 -9901 -11097 -1 3 0
-9898 -9902 -11097 -1 -2 3 0
-9899 -9901 -11097 -2 -1 3 0
-9899 -9902 -11097 -2 3 0
-9905 -9908 -11098 -2 1 0
-9905 -9909 -11098 -2 -3 1 0
-9906 -9908 -11098 -3 -2 1 0
-9906 -9909 -11098 -3 1 0
-9904 -9907 -11099 -1 2 0
-9904 -9909 -11099 -1 -3 2 0
-9906 -9907 -11099 -3 -1 2 0
-9906 -9909 -11099 -3 2 0
-9904 -9907 -11100 -1 3 0
-9904 -9908 -11100 -1 -2 3 0
-9905 -9907 -11100 -2 -1 3 0
-9905 -9908 -11100 -2 3 0
-9911 -9914 -11101 -2 1 0
-9911 -9915 -11101 -2 -3 1 0
-9912 -9914 -11101 -3 -2 1 0
-9912 -9915 -11101 -3 1 0
-9910 -9913 -11102 -1 2 0
-9910 -9915 -11102 -1 -3 2 0
-9912 -9913 -11102 -3 -1 2 0
-9912 -9915 -11102 -3 2 0
-9910 -9913 -11103 -1 3 0
-9910 -9914 -11103 -1 -2 3 0
-9911 -9913 -11103 -2 -1 3 0
-9911 -9914 -11103 -2 3 0
-9917 -9920 -11104 -2 1 0
-9917 -9921 -11104 -2 -3 1 0
-9918 -9920 -11104 -3 -2 1 0
-9918 -9921 -11104 -3 1 0
-9916 -9919 -11105 -1 2 0
-9916 -9921 -11105 -1 -3 2 0
-9918 -9919 -11105 -3 -1 2 0
-9918 -9921 -11105 -3 2 0
-9916 -9919 -11106 -1 3 0
-9916 -9920 -11106 -1 -2 3 0
-9917 -9919 -11106 -2 -1 3 0
-9917 -9920 -11106 -2 3 0
-9923 -9926 -11107 -2 1 0
-9923 -9927 -11107 -2 -3 1 0
-9924 -9926 -11107 -3 -2 1 0
-9924 -9927 -11107 -3 1 0
-9922 -9925 -11108 -1 2 0
-9922 -9927 -11108 -1 -3 2 0
-9924 -9925 -11108 -3 -1 2 0
-9924 -9927 -11108 -3 2 0
-9922 -9925 -11109 -1 3 0
-9922 -9926 -11109 -1 -2 3 0
-9923 -9925 -11109 -2 -1 3 0
-9923 -9926 -11109 -2 3 0
-9929 -9932 -11110 -2 1 0
-9929 -9933 -11110 -2 -3 1 0
-9930 -9932 -11110 -3 -2 1 0
-9930 -9933 -11110 -3 1 0
-9928 -9931 -11111 -1 2 0
-9928 -9933 -11111 -1 -3 2 0
-9930 -9931 -11111 -3 -1 2 0
-9930 -9933 -11111 -3 2 0
-9928 -9931 -11112 -1 3 0
-9928 -9932 -11112 -1 -2 3 0
-9929 -9931 -11112 -2 -1 3 0
-9929 -9932 -11112 -2 3 0
-9935 -9938 -11113 -2 1 0
-9935 -9939 -11113 -2 -3 1 0
-9936 -9938 -11113 -3 -2 1 0
-9936 -9939 -11113 -3 1 0
-9934 -9937 -11114 -1 2 0
-9934 -9939 -11114 -1 -3 2 0
-9936 -9937 -11114 -3 -1 2 0
-9936 -9939 -11114 -3 2 0
-9934 -9937 -11115 -1 3 0
-9934 -9938 -11115 -1 -2 3 0
-9935 -9937 -11115 -2 -1 3 0
-9935 -9938 -11115 -2 3 0
-9941 -9944 -11116 -2 1 0
-9941 -9945 -11116 -2 -3 1 0
-9942 -9944 -11116 -3 -2 1 0
-9942 -9945 -11116 -3 1 0
-9940 -9943 -11117 -1 2 0
-9940 -9945 -11117 -1 -3 2 0
-9942 -9943 -11117 -3 -1 2 0
-9942 -9945 -11117 -3 2 0
-9940 -9943 -11118 -1 3 0
-9940 -9944 -11118 -1 -2 3 0
-9941 -9943 -11118 -2 -1 3 0
-9941 -9944 -11118 -2 3 0
-9947 -9950 -11119 -2 1 0
-9947 -9951 -11119 -2 -3 1 0
-9948 -9950 -11119 -3 -2 1 0
-9948 -9951 -11119 -3 1 0
-9946 -9949 -11120 -1 2 0
-9946 -9951 -11120 -1 -3 2 0
-9948 -9949 -11120 -3 -1 2 0
-9948 -9951 -11120 -3 2 0
-9946 -9949 -11121 -1 3 0
-9946 -9950 -11121 -1 -2 3 0
-9947 -9949 -11121 -2 -1 3 0
-9947 -9950 -11121 -2 3 0
-9953 -9956 -11122 -2 1 0
-9953 -9957 -11122 -2 -3 1 0
-9954 -9956 -11122 -3 -2 1 0
-9954 -9957 -11122 -3 1 0
-9952 -9955 -11123 -1 2 0
-9952 -9957 -11123 -1 -3 2 0
-9954 -9955 -11123 -3 -1 2 0
-9954 -9957 -11123 -3 2 0
-9952 -9955 -11124 -1 3 0
-9952 -9956 -11124 -1 -2 3 0
-9953 -9955 -11124 -2 -1 3 0
-9953 -9956 -11124 -2 3 0
-9959 -9962 -11125 -2 1 0
-9959 -9963 -11125 -2 -3 1 0
-9960 -9962 -11125 -3 -2 1 0
-9960 -9963 -11125 -3 1 0
-9958 -9961 -11126 -1 2 0
-9958 -9963 -11126 -1 -3 2 0
-9960 -9961 -11126 -3 -1 2 0
-9960 -9963 -11126 -3 2 0
-9958 -9961 -11127 -1 3 0
-9958 -9962 -11127 -1 -2 3 0
-9959 -9961 -11127 -2 -1 3 0
-9959 -9962 -11127 -2 3 0
-9965 -9968 -11128 -2 1 0
-9965 -9969 -11128 -2 -3 1 0
-9966 -9968 -11128 -3 -2 1 0
-9966 -9969 -11128 -3 1 0
-9964 -9967 -11129 -1 2 0
-9964 -9969 -11129 -1 -3 2 0
-9966 -9967 -11129 -3 -1 2 0
-9966 -9969 -11129 -3 2 0
-9964 -9967 -11130 -1 3 0
-9964 -9968 -11130 -1 -2 3 0
-9965 -9967 -11130 -2 -1 3 0
-9965 -9968 -11130 -2 3 0
-9971 -9974 -11131 -2 1 0
-9971 -9975 -11131 -2 -3 1 0
-9972 -9974 -11131 -3 -2 1 0
-9972 -9975 -11131 -3 1 0
-9970 -9973 -11132 -1 2 0
-9970 -9975 -11132 -1 -3 2 0
-9972 -9973 -11132 -3 -1 2 0
-9972 -9975 -11132 -3 2 0
-9970 -9973 -11133 -1 3 0
-9970 -9974 -11133 -1 -2 3 0
-9971 -9973 -11133 -2 -1 3 0
-9971 -9974 -11133 -2 3 0
-9977 -9980 -11134 -2 1 0
-9977 -9981 -11134 -2 -3 1 0
-9978 -9980 -11134 -3 -2 1 0
-9978 -9981 -11134 -3 1 0
-9976 -9979 -11135 -1 2 0
-9976 -9981 -11135 -1 -3 2 0
-9978 -9979 -11135 -3 -1 2 0
-9978 -9981 -11135 -3 2 0
-9976 -9979 -11136 -1 3 0
-9976 -9980 -11136 -1 -2 3 0
-9977 -9979 -11136 -2 -1 3 0
-9977 -9980 -11136 -2 3 0
-9983 -9986 -11137 -2 1 0
-9983 -9987 -11137 -2 -3 1 0
-9984 -9986 -11137 -3 -2 1 0
-9984 -9987 -11137 -3 1 0
-9982 -9985 -11138 -1 2 0
-9982 -9987 -11138 -1 -3 2 0
-9984 -9985 -11138 -3 -1 2 0
-9984 -9987 -11138 -3 2 0
-9982 -9985 -11139 -1 3 0
-9982 -9986 -11139 -1 -2 3 0
-9983 -9985 -11139 -2 -1 3 0
-9983 -9986 -11139 -2 3 0
-9989 -9992 -11140 -2 1 0
-9989 -9993 -11140 -2 -3 1 0
-9990 -9992 -11140 -3 -2 1 0
-9990 -9993 -11140 -3 1 0
-9988 -9991 -11141 -1 2 0
-9988 -9993 -11141 -1 -3 2 0
-9990 -9991 -11141 -3 -1 2 0
-9990 -9993 -11141 -3 2 0
-9988 -9991 -11142 -1 3 0
-9988 -9992 -11142 -1 -2 3 0
-9989 -9991 -11142 -2 -1 3 0
-9989 -9992 -11142 -2 3 0
-9995 -9998 -11143 -2 1 0
-9995 -9999 -11143 -2 -3 1 0
-9996 -9998 -11143 -3 -2 1 0
-9996 -9999 -11143 -3 1 0
-9994 -9997 -11144 -1 2 0
-9994 -9999 -11144 -1 -3 2 0
-9996 -9997 -11144 -3 -1 2 0
-9996 -9999 -11144 -3 2 0
-9994 -9997 -11145 -1 3 0
-9994 -9998 -11145 -1 -2 3 0
-9995 -9997 -11145 -2 -1 3 0
-9995 -9998 -11145 -2 3 0
-10001 -10004 -11146 -2 1 0
-10001 -10005 -11146 -2 -3 1 0
-10002 -10004 -11146 -3 -2 1 0
-10002 -10005 -11146 -3 1 0
-10000 -10003 -11147 -1 2 0
-10000 -10005 -11147 -1 -3 2 0
-10002 -10003 -11147 -3 -1 2 0
-10002 -10005 -11147 -3 2 0
-10000 -10003 -11148 -1 3 0
-10000 -10004 -11148 -1 -2 3 0
-10001 -10003 -11148 -2 -1 3 0
-10001 -10004 -11148 -2 3 0
-10007 -10010 -11149 -2 1 0
-10007 -10011 -11149 -2 -3 1 0
-10008 -10010 -11149 -3 -2 1 0
-10008 -10011 -11149 -3 1 0
-10006 -10009 -11150 -1 2 0
-10006 -10011 -11150 -1 -3 2 0
-10008 -10009 -11150 -3 -1 2 0
-10008 -10011 -11150 -3 2 0
-10006 -10009 -11151 -1 3 0
-10006 -10010 -11151 -1 -2 3 0
-10007 -10009 -11151 -2 -1 3 0
-10007 -10010 -11151 -2 3 0
-10013 -10016 -11152 -2 1 0
-10013 -10017 -11152 -2 -3 1 0
-10014 -10016 -11152 -3 -2 1 0
-10014 -10017 -11152 -3 1 0
-10012 -10015 -11153 -1 2 0
-10012 -10017 -11153 -1 -3 2 0
-10014 -10015 -11153 -3 -1 2 0
-10014 -10017 -11153 -3 2 0
-10012 -10015 -11154 -1 3 0
-10012 -10016 -11154 -1 -2 3 0
-10013 -10015 -11154 -2 -1 3 0
-10013 -10016 -11154 -2 3 0
-10019 -10022 -11155 -2 1 0
-10019 -10023 -11155 -2 -3 1 0
-10020 -10022 -11155 -3 -2 1 0
-10020 -10023 -11155 -3 1 0
-10018 -10021 -11156 -1 2 0
-10018 -10023 -11156 -1 -3 2 0
-10020 -10021 -11156 -3 -1 2 0
-10020 -10023 -11156 -3 2 0
-10018 -10021 -11157 -1 3 0
-10018 -10022 -11157 -1 -2 3 0
-10019 -10021 -11157 -2 -1 3 0
-10019 -10022 -11157 -2 3 0
-10025 -10028 -11158 -2 1 0
-10025 -10029 -11158 -2 -3 1 0
-10026 -10028 -11158 -3 -2 1 0
-10026 -10029 -11158 -3 1 0
-10024 -10027 -11159 -1 2 0
-10024 -10029 -11159 -1 -3 2 0
-10026 -10027 -11159 -3 -1 2 0
-10026 -10029 -11159 -3 2 0
-10024 -10027 -11160 -1 3 0
-10024 -10028 -11160 -1 -2 3 0
-10025 -10027 -11160 -2 -1 3 0
-10025 -10028 -11160 -2 3 0
-10031 -10034 -11161 -2 1 0
-10031 -10035 -11161 -2 -3 1 0
-10032 -10034 -11161 -3 -2 1 0
-10032 -10035 -11161 -3 1 0
-10030 -10033 -11162 -1 2 0
-10030 -10035 -11162 -1 -3 2 0
-10032 -10033 -11162 -3 -1 2 0
-10032 -10035 -11162 -3 2 0
-10030 -10033 -11163 -1 3 0
-10030 -10034 -11163 -1 -2 3 0
-10031 -10033 -11163 -2 -1 3 0
-10031 -10034 -11163 -2 3 0
-10037 -10040 -11164 -2 1 0
-10037 -10041 -11164 -2 -3 1 0
-10038 -10040 -11164 -3 -2 1 0
-10038 -10041 -11164 -3 1 0
-10036 -10039 -11165 -1 2 0
-10036 -10041 -11165 -1 -3 2 0
-10038 -10039 -11165 -3 -1 2 0
-10038 -10041 -11165 -3 2 0
-10036 -10039 -11166 -1 3 0
-10036 -10040 -11166 -1 -2 3 0
-10037 -10039 -11166 -2 -1 3 0
-10037 -10040 -11166 -2 3 0
-10043 -10046 -11167 -2 1 0
-10043 -10047 -11167 -2 -3 1 0
-10044 -10046 -11167 -3 -2 1 0
-10044 -10047 -11167 -3 1 0
-10042 -10045 -11168 -1 2 0
-10042 -10047 -11168 -1 -3 2 0
-10044 -10045 -11168 -3 -1 2 0
-10044 -10047 -11168 -3 2 0
-10042 -10045 -11169 -1 3 0
-10042 -10046 -11169 -1 -2 3 0
-10043 -10045 -11169 -2 -1 3 0
-10043 -10046 -11169 -2 3 0
-10049 -10052 -11170 -2 1 0
-10049 -10053 -11170 -2 -3 1 0
-10050 -10052 -11170 -3 -2 1 0
-10050 -10053 -11170 -3 1 0
-10048 -10051 -11171 -1 2 0
-10048 -10053 -11171 -1 -3 2 0
-10050 -10051 -11171 -3 -1 2 0
-10050 -10053 -11171 -3 2 0
-10048 -10051 -11172 -1 3 0
-10048 -10052 -11172 -1 -2 3 0
-10049 -10051 -11172 -2 -1 3 0
-10049 -10052 -11172 -2 3 0
-10055 -10058 -11173 -2 1 0
-10055 -10059 -11173 -2 -3 1 0
-10056 -10058 -11173 -3 -2 1 0
-10056 -10059 -11173 -3 1 0
-10054 -10057 -11174 -1 2 0
-10054 -10059 -11174 -1 -3 2 0
-10056 -10057 -11174 -3 -1 2 0
-10056 -10059 -11174 -3 2 0
-10054 -10057 -11175 -1 3 0
-10054 -10058 -11175 -1 -2 3 0
-10055 -10057 -11175 -2 -1 3 0
-10055 -10058 -11175 -2 3 0
-10061 -10064 -11176 -2 1 0
-10061 -10065 -11176 -2 -3 1 0
-10062 -10064 -11176 -3 -2 1 0
-10062 -10065 -11176 -3 1 0
-10060 -10063 -11177 -1 2 0
-10060 -10065 -11177 -1 -3 2 0
-10062 -10063 -11177 -3 -1 2 0
-10062 -10065 -11177 -3 2 0
-10060 -10063 -11178 -1 3 0
-10060 -10064 -11178 -1 -2 3 0
-10061 -10063 -11178 -2 -1 3 0
-10061 -10064 -11178 -2 3 0
-10067 -10070 -11179 -2 1 0
-10067 -10071 -11179 -2 -3 1 0
-10068 -10070 -11179 -3 -2 1 0
-10068 -10071 -11179 -3 1 0
-10066 -10069 -11180 -1 2 0
-10066 -10071 -11180 -1 -3 2 0
-10068 -10069 -11180 -3 -1 2 0
-10068 -10071 -11180 -3 2 0
-10066 -10069 -11181 -1 3 0
-10066 -10070 -11181 -1 -2 3 0
-10067 -10069 -11181 -2 -1 3 0
-10067 -10070 -11181 -2 3 0
-10073 -10076 -11182 -2 1 0
-10073 -10077 -11182 -2 -3 1 0
-10074 -10076 -11182 -3 -2 1 0
-10074 -10077 -11182 -3 1 0
-10072 -10075 -11183 -1 2 0
-10072 -10077 -11183 -1 -3 2 0
-10074 -10075 -11183 -3 -1 2 0
-10074 -10077 -11183 -3 2 0
-10072 -10075 -11184 -1 3 0
-10072 -10076 -11184 -1 -2 3 0
-10073 -10075 -11184 -2 -1 3 0
-10073 -10076 -11184 -2 3 0
-10079 -10082 -11185 -2 1 0
-10079 -10083 -11185 -2 -3 1 0
-10080 -10082 -11185 -3 -2 1 0
-10080 -10083 -11185 -3 1 0
-10078 -10081 -11186 -1 2 0
-10078 -10083 -11186 -1 -3 2 0
-10080 -10081 -11186 -3 -1 2 0
-10080 -10083 -11186 -3 2 0
-10078 -10081 -11187 -1 3 0
-10078 -10082 -11187 -1 -2 3 0
-10079 -10081 -11187 -2 -1 3 0
-10079 -10082 -11187 -2 3 0
-10085 -10088 -11188 -2 1 0
-10085 -10089 -11188 -2 -3 1 0
-10086 -10088 -11188 -3 -2 1 0
-10086 -10089 -11188 -3 1 0
-10084 -10087 -11189 -1 2 0
-10084 -10089 -11189 -1 -3 2 0
-10086 -10087 -11189 -3 -1 2 0
-10086 -10089 -11189 -3 2 0
-10084 -10087 -11190 -1 3 0
-10084 -10088 -11190 -1 -2 3 0
-10085 -10087 -11190 -2 -1 3 0
-10085 -10088 -11190 -2 3 0
-10091 -10094 -11191 -2 1 0
-10091 -10095 -11191 -2 -3 1 0
-10092 -10094 -11191 -3 -2 1 0
-10092 -10095 -11191 -3 1 0
-10090 -10093 -11192 -1 2 0
-10090 -10095 -11192 -1 -3 2 0
-10092 -10093 -11192 -3 -1 2 0
-10092 -10095 -11192 -3 2 0
-10090 -10093 -11193 -1 3 0
-10090 -10094 -11193 -1 -2 3 0
-10091 -10093 -11193 -2 -1 3 0
-10091 -10094 -11193 -2 3 0
-10097 -10100 -11194 -2 1 0
-10097 -10101 -11194 -2 -3 1 0
-10098 -10100 -11194 -3 -2 1 0
-10098 -10101 -11194 -3 1 0
-10096 -10099 -11195 -1 2 0
-10096 -10101 -11195 -1 -3 2 0
-10098 -10099 -11195 -3 -1 2 0
-10098 -10101 -11195 -3 2 0
-10096 -10099 -11196 -1 3 0
-10096 -10100 -11196 -1 -2 3 0
-10097 -10099 -11196 -2 -1 3 0
-10097 -10100 -11196 -2 3 0
-10103 -10106 -11197 -2 1 0
-10103 -10107 -11197 -2 -3 1 0
-10104 -10106 -11197 -3 -2 1 0
-10104 -10107 -11197 -3 1 0
-10102 -10105 -11198 -1 2 0
-10102 -10107 -11198 -1 -3 2 0
-10104 -10105 -11198 -3 -1 2 0
-10104 -10107 -11198 -3 2 0
-10102 -10105 -11199 -1 3 0
-10102 -10106 -11199 -1 -2 3 0
-10103 -10105 -11199 -2 -1 3 0
-10103 -10106 -11199 -2 3 0
-10109 -10112 -11200 -2 1 0
-10109 -10113 -11200 -2 -3 1 0
-10110 -10112 -11200 -3 -2 1 0
-10110 -10113 -11200 -3 1 0
-10108 -10111 -11201 -1 2 0
-10108 -10113 -11201 -1 -3 2 0
-10110 -10111 -11201 -3 -1 2 0
-10110 -10113 -11201 -3 2 0
-10108 -10111 -11202 -1 3 0
-10108 -10112 -11202 -1 -2 3 0
-10109 -10111 -11202 -2 -1 3 0
-10109 -10112 -11202 -2 3 0
-10115 -10118 -11203 -2 1 0
-10115 -10119 -11203 -2 -3 1 0
-10116 -10118 -11203 -3 -2 1 0
-10116 -10119 -11203 -3 1 0
-10114 -10117 -11204 -1 2 0
-10114 -10119 -11204 -1 -3 2 0
-10116 -10117 -11204 -3 -1 2 0
-10116 -10119 -11204 -3 2 0
-10114 -10117 -11205 -1 3 0
-10114 -10118 -11205 -1 -2 3 0
-10115 -10117 -11205 -2 -1 3 0
-10115 -10118 -11205 -2 3 0
-10121 -10124 -11206 -2 1 0
-10121 -10125 -11206 -2 -3 1 0
-10122 -10124 -11206 -3 -2 1 0
-10122 -10125 -11206 -3 1 0
-10120 -10123 -11207 -1 2 0
-10120 -10125 -11207 -1 -3 2 0
-10122 -10123 -11207 -3 -1 2 0
-10122 -10125 -11207 -3 2 0
-10120 -10123 -11208 -1 3 0
-10120 -10124 -11208 -1 -2 3 0
-10121 -10123 -11208 -2 -1 3 0
-10121 -10124 -11208 -2 3 0
-10127 -10130 -11209 -2 1 0
-10127 -10131 -11209 -2 -3 1 0
-10128 -10130 -11209 -3 -2 1 0
-10128 -10131 -11209 -3 1 0
-10126 -10129 -11210 -1 2 0
-10126 -10131 -11210 -1 -3 2 0
-10128 -10129 -11210 -3 -1 2 0
-10128 -10131 -11210 -3 2 0
-10126 -10129 -11211 -1 3 0
-10126 -10130 -11211 -1 -2 3 0
-10127 -10129 -11211 -2 -1 3 0
-10127 -10130 -11211 -2 3 0
-10133 -10136 -11212 -2 1 0
-10133 -10137 -11212 -2 -3 1 0
-10134 -10136 -11212 -3 -2 1 0
-10134 -10137 -11212 -3 1 0
-10132 -10135 -11213 -1 2 0
-10132 -10137 -11213 -1 -3 2 0
-10134 -10135 -11213 -3 -1 2 0
-10134 -10137 -11213 -3 2 0
-10132 -10135 -11214 -1 3 0
-10132 -10136 -11214 -1 -2 3 0
-10133 -10135 -11214 -2 -1 3 0
-10133 -10136 -11214 -2 3 0
-10139 -10142 -11215 -2 1 0
-10139 -10143 -11215 -2 -3 1 0
-10140 -10142 -11215 -3 -2 1 0
-10140 -10143 -11215 -3 1 0
-10138 -10141 -11216 -1 2 0
-10138 -10143 -11216 -1 -3 2 0
-10140 -10141 -11216 -3 -1 2 0
-10140 -10143 -11216 -3 2 0
-10138 -10141 -11217 -1 3 0
-10138 -10142 -11217 -1 -2 3 0
-10139 -10141 -11217 -2 -1 3 0
-10139 -10142 -11217 -2 3 0
-10145 -10148 -11218 -2 1 0
-10145 -10149 -11218 -2 -3 1 0
-10146 -10148 -11218 -3 -2 1 0
-10146 -10149 -11218 -3 1 0
-10144 -10147 -11219 -1 2 0
-10144 -10149 -11219 -1 -3 2 0
-10146 -10147 -11219 -3 -1 2 0
-10146 -10149 -11219 -3 2 0
-10144 -10147 -11220 -1 3 0
-10144 -10148 -11220 -1 -2 3 0
-10145 -10147 -11220 -2 -1 3 0
-10145 -10148 -11220 -2 3 0
-10151 -10154 -11221 -2 1 0
-10151 -10155 -11221 -2 -3 1 0
-10152 -10154 -11221 -3 -2 1 0
-10152 -10155 -11221 -3 1 0
-10150 -10153 -11222 -1 2 0
-10150 -10155 -11222 -1 -3 2 0
-10152 -10153 -11222 -3 -1 2 0
-10152 -10155 -11222 -3 2 0
-10150 -10153 -11223 -1 3 0
-10150 -10154 -11223 -1 -2 3 0
-10151 -10153 -11223 -2 -1 3 0
-10151 -10154 -11223 -2 3 0
-10157 -10160 -11224 -2 1 0
-10157 -10161 -11224 -2 -3 1 0
-10158 -10160 -11224 -3 -2 1 0
-10158 -10161 -11224 -3 1 0
-10156 -10159 -11225 -1 2 0
-10156 -10161 -11225 -1 -3 2 0
-10158 -10159 -11225 -3 -1 2 0
-10158 -10161 -11225 -3 2 0
-10156 -10159 -11226 -1 3 0
-10156 -10160 -11226 -1 -2 3 0
-10157 -10159 -11226 -2 -1 3 0
-10157 -10160 -11226 -2 3 0
-10163 -10166 -11227 -2 1 0
-10163 -10167 -11227 -2 -3 1 0
-10164 -10166 -11227 -3 -2 1 0
-10164 -10167 -11227 -3 1 0
-10162 -10165 -11228 -1 2 0
-10162 -10167 -11228 -1 -3 2 0
-10164 -10165 -11228 -3 -1 2 0
-10164 -10167 -11228 -3 2 0
-10162 -10165 -11229 -1 3 0
-10162 -10166 -11229 -1 -2 3 0
-10163 -10165 -11229 -2 -1 3 0
-10163 -10166 -11229 -2 3 0
-10169 -10172 -11230 -2 1 0
-10169 -10173 -11230 -2 -3 1 0
-10170 -10172 -11230 -3 -2 1 0
-10170 -10173 -11230 -3 1 0
-10168 -10171 -11231 -1 2 0
-10168 -10173 -11231 -1 -3 2 0
-10170 -10171 -11231 -3 -1 2 0
-10170 -10173 -11231 -3 2 0
-10168 -10171 -11232 -1 3 0
-10168 -10172 -11232 -1 -2 3 0
-10169 -10171 -11232 -2 -1 3 0
-10169 -10172 -11232 -2 3 0
-10175 -10178 -11233 -2 1 0
-10175 -10179 -11233 -2 -3 1 0
-10176 -10178 -11233 -3 -2 1 0
-10176 -10179 -11233 -3 1 0
-10174 -10177 -11234 -1 2 0
-10174 -10179 -11234 -1 -3 2 0
-10176 -10177 -11234 -3 -1 2 0
-10176 -10179 -11234 -3 2 0
-10174 -10177 -11235 -1 3 0
-10174 -10178 -11235 -1 -2 3 0
-10175 -10177 -11235 -2 -1 3 0
-10175 -10178 -11235 -2 3 0
-10181 -10184 -11236 -2 1 0
-10181 -10185 -11236 -2 -3 1 0
-10182 -10184 -11236 -3 -2 1 0
-10182 -10185 -11236 -3 1 0
-10180 -10183 -11237 -1 2 0
-10180 -10185 -11237 -1 -3 2 0
-10182 -10183 -11237 -3 -1 2 0
-10182 -10185 -11237 -3 2 0
-10180 -10183 -11238 -1 3 0
-10180 -10184 -11238 -1 -2 3 0
-10181 -10183 -11238 -2 -1 3 0
-10181 -10184 -11238 -2 3 0
-10187 -10190 -11239 -2 1 0
-10187 -10191 -11239 -2 -3 1 0
-10188 -10190 -11239 -3 -2 1 0
-10188 -10191 -11239 -3 1 0
-10186 -10189 -11240 -1 2 0
-10186 -10191 -11240 -1 -3 2 0
-10188 -10189 -11240 -3 -1 2 0
-10188 -10191 -11240 -3 2 0
-10186 -10189 -11241 -1 3 0
-10186 -10190 -11241 -1 -2 3 0
-10187 -10189 -11241 -2 -1 3 0
-10187 -10190 -11241 -2 3 0
-10193 -10196 -11242 -2 1 0
-10193 -10197 -11242 -2 -3 1 0
-10194 -10196 -11242 -3 -2 1 0
-10194 -10197 -11242 -3 1 0
-10192 -10195 -11243 -1 2 0
-10192 -10197 -11243 -1 -3 2 0
-10194 -10195 -11243 -3 -1 2 0
-10194 -10197 -11243 -3 2 0
-10192 -10195 -11244 -1 3 0
-10192 -10196 -11244 -1 -2 3 0
-10193 -10195 -11244 -2 -1 3 0
-10193 -10196 -11244 -2 3 0
-10199 -10202 -11245 -2 1 0
-10199 -10203 -11245 -2 -3 1 0
-10200 -10202 -11245 -3 -2 1 0
-10200 -10203 -11245 -3 1 0
-10198 -10201 -11246 -1 2 0
-10198 -10203 -11246 -1 -3 2 0
-10200 -10201 -11246 -3 -1 2 0
-10200 -10203 -11246 -3 2 0
-10198 -10201 -11247 -1 3 0
-10198 -10202 -11247 -1 -2 3 0
-10199 -10201 -11247 -2 -1 3 0
-10199 -10202 -11247 -2 3 0
-10205 -10208 -11248 -2 1 0
-10205 -10209 -11248 -2 -3 1 0
-10206 -10208 -11248 -3 -2 1 0
-10206 -10209 -11248 -3 1 0
-10204 -10207 -11249 -1 2 0
-10204 -10209 -11249 -1 -3 2 0
-10206 -10207 -11249 -3 -1 2 0
-10206 -10209 -11249 -3 2 0
-10204 -10207 -11250 -1 3 0
-10204 -10208 -11250 -1 -2 3 0
-10205 -10207 -11250 -2 -1 3 0
-10205 -10208 -11250 -2 3 0
-10211 -10214 -11251 -2 1 0
-10211 -10215 -11251 -2 -3 1 0
-10212 -10214 -11251 -3 -2 1 0
-10212 -10215 -11251 -3 1 0
-10210 -10213 -11252 -1 2 0
-10210 -10215 -11252 -1 -3 2 0
-10212 -10213 -11252 -3 -1 2 0
-10212 -10215 -11252 -3 2 0
-10210 -10213 -11253 -1 3 0
-10210 -10214 -11253 -1 -2 3 0
-10211 -10213 -11253 -2 -1 3 0
-10211 -10214 -11253 -2 3 0
-10217 -10220 -11254 -2 1 0
-10217 -10221 -11254 -2 -3 1 0
-10218 -10220 -11254 -3 -2 1 0
-10218 -10221 -11254 -3 1 0
-10216 -10219 -11255 -1 2 0
-10216 -10221 -11255 -1 -3 2 0
-10218 -10219 -11255 -3 -1 2 0
-10218 -10221 -11255 -3 2 0
-10216 -10219 -11256 -1 3 0
-10216 -10220 -11256 -1 -2 3 0
-10217 -10219 -11256 -2 -1 3 0
-10217 -10220 -11256 -2 3 0
-10223 -10226 -11257 -2 1 0
-10223 -10227 -11257 -2 -3 1 0
-10224 -10226 -11257 -3 -2 1 0
-10224 -10227 -11257 -3 1 0
-10222 -10225 -11258 -1 2 0
-10222 -10227 -11258 -1 -3 2 0
-10224 -10225 -11258 -3 -1 2 0
-10224 -10227 -11258 -3 2 0
-10222 -10225 -11259 -1 3 0
-10222 -10226 -11259 -1 -2 3 0
-10223 -10225 -11259 -2 -1 3 0
-10223 -10226 -11259 -2 3 0
-10229 -10232 -11260 -2 1 0
-10229 -10233 -11260 -2 -3 1 0
-10230 -10232 -11260 -3 -2 1 0
-10230 -10233 -11260 -3 1 0
-10228 -10231 -11261 -1 2 0
-10228 -10233 -11261 -1 -3 2 0
-10230 -10231 -11261 -3 -1 2 0
-10230 -10233 -11261 -3 2 0
-10228 -10231 -11262 -1 3 0
-10228 -10232 -11262 -1 -2 3 0
-10229 -10231 -11262 -2 -1 3 0
-10229 -10232 -11262 -2 3 0
-10235 -10238 -11263 -2 1 0
-10235 -10239 -11263 -2 -3 1 0
-10236 -10238 -11263 -3 -2 1 0
-10236 -10239 -11263 -3 1 0
-10234 -10237 -11264 -1 2 0
-10234 -10239 -11264 -1 -3 2 0
-10236 -10237 -11264 -3 -1 2 0
-10236 -10239 -11264 -3 2 0
-10234 -10237 -11265 -1 3 0
-10234 -10238 -11265 -1 -2 3 0
-10235 -10237 -11265 -2 -1 3 0
-10235 -10238 -11265 -2 3 0
-10241 -10244 -11266 -2 1 0
-10241 -10245 -11266 -2 -3 1 0
-10242 -10244 -11266 -3 -2 1 0
-10242 -10245 -11266 -3 1 0
-10240 -10243 -11267 -1 2 0
-10240 -10245 -11267 -1 -3 2 0
-10242 -10243 -11267 -3 -1 2 0
-10242 -10245 -11267 -3 2 0
-10240 -10243 -11268 -1 3 0
-10240 -10244 -11268 -1 -2 3 0
-10241 -10243 -11268 -2 -1 3 0
-10241 -10244 -11268 -2 3 0
-10247 -10250 -11269 -2 1 0
-10247 -10251 -11269 -2 -3 1 0
-10248 -10250 -11269 -3 -2 1 0
-10248 -10251 -11269 -3 1 0
-10246 -10249 -11270 -1 2 0
-10246 -10251 -11270 -1 -3 2 0
-10248 -10249 -11270 -3 -1 2 0
-10248 -10251 -11270 -3 2 0
-10246 -10249 -11271 -1 3 0
-10246 -10250 -11271 -1 -2 3 0
-10247 -10249 -11271 -2 -1 3 0
-10247 -10250 -11271 -2 3 0
-10253 -10256 -11272 -2 1 0
-10253 -10257 -11272 -2 -3 1 0
-10254 -10256 -11272 -3 -2 1 0
-10254 -10257 -11272 -3 1 0
-10252 -10255 -11273 -1 2 0
-10252 -10257 -11273 -1 -3 2 0
-10254 -10255 -11273 -3 -1 2 0
-10254 -10257 -11273 -3 2 0
-10252 -10255 -11274 -1 3 0
-10252 -10256 -11274 -1 -2 3 0
-10253 -10255 -11274 -2 -1 3 0
-10253 -10256 -11274 -2 3 0
-10259 -10262 -11275 -2 1 0
-10259 -10263 -11275 -2 -3 1 0
-10260 -10262 -11275 -3 -2 1 0
-10260 -10263 -11275 -3 1 0
-10258 -10261 -11276 -1 2 0
-10258 -10263 -11276 -1 -3 2 0
-10260 -10261 -11276 -3 -1 2 0
-10260 -10263 -11276 -3 2 0
-10258 -10261 -11277 -1 3 0
-10258 -10262 -11277 -1 -2 3 0
-10259 -10261 -11277 -2 -1 3 0
-10259 -10262 -11277 -2 3 0
-10265 -10268 -11278 -2 1 0
-10265 -10269 -11278 -2 -3 1 0
-10266 -10268 -11278 -3 -2 1 0
-10266 -10269 -11278 -3 1 0
-10264 -10267 -11279 -1 2 0
-10264 -10269 -11279 -1 -3 2 0
-10266 -10267 -11279 -3 -1 2 0
-10266 -10269 -11279 -3 2 0
-10264 -10267 -11280 -1 3 0
-10264 -10268 -11280 -1 -2 3 0
-10265 -10267 -11280 -2 -1 3 0
-10265 -10268 -11280 -2 3 0
-10271 -10274 -11281 -2 1 0
-10271 -10275 -11281 -2 -3 1 0
-10272 -10274 -11281 -3 -2 1 0
-10272 -10275 -11281 -3 1 0
-10270 -10273 -11282 -1 2 0
-10270 -10275 -11282 -1 -3 2 0
-10272 -10273 -11282 -3 -1 2 0
-10272 -10275 -11282 -3 2 0
-10270 -10273 -11283 -1 3 0
-10270 -10274 -11283 -1 -2 3 0
-10271 -10273 -11283 -2 -1 3 0
-10271 -10274 -11283 -2 3 0
-10277 -10280 -11284 -2 1 0
-10277 -10281 -11284 -2 -3 1 0
-10278 -10280 -11284 -3 -2 1 0
-10278 -10281 -11284 -3 1 0
-10276 -10279 -11285 -1 2 0
-10276 -10281 -11285 -1 -3 2 0
-10278 -10279 -11285 -3 -1 2 0
-10278 -10281 -11285 -3 2 0
-10276 -10279 -11286 -1 3 0
-10276 -10280 -11286 -1 -2 3 0
-10277 -10279 -11286 -2 -1 3 0
-10277 -10280 -11286 -2 3 0
-10283 -10286 -11287 -2 1 0
-10283 -10287 -11287 -2 -3 1 0
-10284 -10286 -11287 -3 -2 1 0
-10284 -10287 -11287 -3 1 0
-10282 -10285 -11288 -1 2 0
-10282 -10287 -11288 -1 -3 2 0
-10284 -10285 -11288 -3 -1 2 0
-10284 -10287 -11288 -3 2 0
-10282 -10285 -11289 -1 3 0
-10282 -10286 -11289 -1 -2 3 0
-10283 -10285 -11289 -2 -1 3 0
-10283 -10286 -11289 -2 3 0
-10289 -10292 -11290 -2 1 0
-10289 -10293 -11290 -2 -3 1 0
-10290 -10292 -11290 -3 -2 1 0
-10290 -10293 -11290 -3 1 0
-10288 -10291 -11291 -1 2 0
-10288 -10293 -11291 -1 -3 2 0
-10290 -10291 -11291 -3 -1 2 0
-10290 -10293 -11291 -3 2 0
-10288 -10291 -11292 -1 3 0
-10288 -10292 -11292 -1 -2 3 0
-10289 -10291 -11292 -2 -1 3 0
-10289 -10292 -11292 -2 3 0
-10295 -10298 -11293 -2 1 0
-10295 -10299 -11293 -2 -3 1 0
-10296 -10298 -11293 -3 -2 1 0
-10296 -10299 -11293 -3 1 0
-10294 -10297 -11294 -1 2 0
-10294 -10299 -11294 -1 -3 2 0
-10296 -10297 -11294 -3 -1 2 0
-10296 -10299 -11294 -3 2 0
-10294 -10297 -11295 -1 3 0
-10294 -10298 -11295 -1 -2 3 0
-10295 -10297 -11295 -2 -1 3 0
-10295 -10298 -11295 -2 3 0
-10301 -10304 -11296 -2 1 0
-10301 -10305 -11296 -2 -3 1 0
-10302 -10304 -11296 -3 -2 1 0
-10302 -10305 -11296 -3 1 0
-10300 -10303 -11297 -1 2 0
-10300 -10305 -11297 -1 -3 2 0
-10302 -10303 -11297 -3 -1 2 0
-10302 -10305 -11297 -3 2 0
-10300 -10303 -11298 -1 3 0
-10300 -10304 -11298 -1 -2 3 0
-10301 -10303 -11298 -2 -1 3 0
-10301 -10304 -11298 -2 3 0
-10307 -10310 -11299 -2 1 0
-10307 -10311 -11299 -2 -3 1 0
-10308 -10310 -11299 -3 -2 1 0
-10308 -10311 -11299 -3 1 0
-10306 -10309 -11300 -1 2 0
-10306 -10311 -11300 -1 -3 2 0
-10308 -10309 -11300 -3 -1 2 0
-10308 -10311 -11300 -3 2 0
-10306 -10309 -11301 -1 3 0
-10306 -10310 -11301 -1 -2 3 0
-10307 -10309 -11301 -2 -1 3 0
-10307 -10310 -11301 -2 3 0
-10313 -10316 -11302 -2 1 0
-10313 -10317 -11302 -2 -3 1 0
-10314 -10316 -11302 -3 -2 1 0
-10314 -10317 -11302 -3 1 0
-10312 -10315 -11303 -1 2 0
-10312 -10317 -11303 -1 -3 2 0
-10314 -10315 -11303 -3 -1 2 0
-10314 -10317 -11303 -3 2 0
-10312 -10315 -11304 -1 3 0
-10312 -10316 -11304 -1 -2 3 0
-10313 -10315 -11304 -2 -1 3 0
-10313 -10316 -11304 -2 3 0
-10319 -10322 -11305 -2 1 0
-10319 -10323 -11305 -2 -3 1 0
-10320 -10322 -11305 -3 -2 1 0
-10320 -10323 -11305 -3 1 0
-10318 -10321 -11306 -1 2 0
-10318 -10323 -11306 -1 -3 2 0
-10320 -10321 -11306 -3 -1 2 0
-10320 -10323 -11306 -3 2 0
-10318 -10321 -11307 -1 3 0
-10318 -10322 -11307 -1 -2 3 0
-10319 -10321 -11307 -2 -1 3 0
-10319 -10322 -11307 -2 3 0
-10325 -10328 -11308 -2 1 0
-10325 -10329 -11308 -2 -3 1 0
-10326 -10328 -11308 -3 -2 1 0
-10326 -10329 -11308 -3 1 0
-10324 -10327 -11309 -1 2 0
-10324 -10329 -11309 -1 -3 2 0
-10326 -10327 -11309 -3 -1 2 0
-10326 -10329 -11309 -3 2 0
-10324 -10327 -11310 -1 3 0
-10324 -10328 -11310 -1 -2 3 0
-10325 -10327 -11310 -2 -1 3 0
-10325 -10328 -11310 -2 3 0
-10331 -10334 -11311 -2 1 0
-10331 -10335 -11311 -2 -3 1 0
-10332 -10334 -11311 -3 -2 1 0
-10332 -10335 -11311 -3 1 0
-10330 -10333 -11312 -1 2 0
-10330 -10335 -11312 -1 -3 2 0
-10332 -10333 -11312 -3 -1 2 0
-10332 -10335 -11312 -3 2 0
-10330 -10333 -11313 -1 3 0
-10330 -10334 -11313 -1 -2 3 0
-10331 -10333 -11313 -2 -1 3 0
-10331 -10334 -11313 -2 3 0
-10337 -10340 -11314 -2 1 0
-10337 -10341 -11314 -2 -3 1 0
-10338 -10340 -11314 -3 -2 1 0
-10338 -10341 -11314 -3 1 0
-10336 -10339 -11315 -1 2 0
-10336 -10341 -11315 -1 -3 2 0
-10338 -10339 -11315 -3 -1 2 0
-10338 -10341 -11315 -3 2 0
-10336 -10339 -11316 -1 3 0
-10336 -10340 -11316 -1 -2 3 0
-10337 -10339 -11316 -2 -1 3 0
-10337 -10340 -11316 -2 3 0
-10343 -10346 -11317 -2 1 0
-10343 -10347 -11317 -2 -3 1 0
-10344 -10346 -11317 -3 -2 1 0
-10344 -10347 -11317 -3 1 0
-10342 -10345 -11318 -1 2 0
-10342 -10347 -11318 -1 -3 2 0
-10344 -10345 -11318 -3 -1 2 0
-10344 -10347 -11318 -3 2 0
-10342 -10345 -11319 -1 3 0
-10342 -10346 -11319 -1 -2 3 0
-10343 -10345 -11319 -2 -1 3 0
-10343 -10346 -11319 -2 3 0
-10349 -10352 -11320 -2 1 0
-10349 -10353 -11320 -2 -3 1 0
-10350 -10352 -11320 -3 -2 1 0
-10350 -10353 -11320 -3 1 0
-10348 -10351 -11321 -1 2 0
-10348 -10353 -11321 -1 -3 2 0
-10350 -10351 -11321 -3 -1 2 0
-10350 -10353 -11321 -3 2 0
-10348 -10351 -11322 -1 3 0
-10348 -10352 -11322 -1 -2 3 0
-10349 -10351 -11322 -2 -1 3 0
-10349 -10352 -11322 -2 3 0
-10355 -10358 -11323 -2 1 0
-10355 -10359 -11323 -2 -3 1 0
-10356 -10358 -11323 -3 -2 1 0
-10356 -10359 -11323 -3 1 0
-10354 -10357 -11324 -1 2 0
-10354 -10359 -11324 -1 -3 2 0
-10356 -10357 -11324 -3 -1 2 0
-10356 -10359 -11324 -3 2 0
-10354 -10357 -11325 -1 3 0
-10354 -10358 -11325 -1 -2 3 0
-10355 -10357 -11325 -2 -1 3 0
-10355 -10358 -11325 -2 3 0
-10361 -10364 -11326 -2 1 0
-10361 -10365 -11326 -2 -3 1 0
-10362 -10364 -11326 -3 -2 1 0
-10362 -10365 -11326 -3 1 0
-10360 -10363 -11327 -1 2 0
-10360 -10365 -11327 -1 -3 2 0
-10362 -10363 -11327 -3 -1 2 0
-10362 -10365 -11327 -3 2 0
-10360 -10363 -11328 -1 3 0
-10360 -10364 -11328 -1 -2 3 0
-10361 -10363 -11328 -2 -1 3 0
-10361 -10364 -11328 -2 3 0
-10367 -10370 -11329 -2 1 0
-10367 -10371 -11329 -2 -3 1 0
-10368 -10370 -11329 -3 -2 1 0
-10368 -10371 -11329 -3 1 0
-10366 -10369 -11330 -1 2 0
-10366 -10371 -11330 -1 -3 2 0
-10368 -10369 -11330 -3 -1 2 0
-10368 -10371 -11330 -3 2 0
-10366 -10369 -11331 -1 3 0
-10366 -10370 -11331 -1 -2 3 0
-10367 -10369 -11331 -2 -1 3 0
-10367 -10370 -11331 -2 3 0
-10373 -10376 -11332 -2 1 0
-10373 -10377 -11332 -2 -3 1 0
-10374 -10376 -11332 -3 -2 1 0
-10374 -10377 -11332 -3 1 0
-10372 -10375 -11333 -1 2 0
-10372 -10377 -11333 -1 -3 2 0
-10374 -10375 -11333 -3 -1 2 0
-10374 -10377 -11333 -3 2 0
-10372 -10375 -11334 -1 3 0
-10372 -10376 -11334 -1 -2 3 0
-10373 -10375 -11334 -2 -1 3 0
-10373 -10376 -11334 -2 3 0
-10379 -10382 -11335 -2 1 0
-10379 -10383 -11335 -2 -3 1 0
-10380 -10382 -11335 -3 -2 1 0
-10380 -10383 -11335 -3 1 0
-10378 -10381 -11336 -1 2 0
-10378 -10383 -11336 -1 -3 2 0
-10380 -10381 -11336 -3 -1 2 0
-10380 -10383 -11336 -3 2 0
-10378 -10381 -11337 -1 3 0
-10378 -10382 -11337 -1 -2 3 0
-10379 -10381 -11337 -2 -1 3 0
-10379 -10382 -11337 -2 3 0
-10385 -10388 -11338 -2 1 0
-10385 -10389 -11338 -2 -3 1 0
-10386 -10388 -11338 -3 -2 1 0
-10386 -10389 -11338 -3 1 0
-10384 -10387 -11339 -1 2 0
-10384 -10389 -11339 -1 -3 2 0
-10386 -10387 -11339 -3 -1 2 0
-10386 -10389 -11339 -3 2 0
-10384 -10387 -11340 -1 3 0
-10384 -10388 -11340 -1 -2 3 0
-10385 -10387 -11340 -2 -1 3 0
-10385 -10388 -11340 -2 3 0
-10391 -10394 -11341 -2 1 0
-10391 -10395 -11341 -2 -3 1 0
-10392 -10394 -11341 -3 -2 1 0
-10392 -10395 -11341 -3 1 0
-10390 -10393 -11342 -1 2 0
-10390 -10395 -11342 -1 -3 2 0
-10392 -10393 -11342 -3 -1 2 0
-10392 -10395 -11342 -3 2 0
-10390 -10393 -11343 -1 3 0
-10390 -10394 -11343 -1 -2 3 0
-10391 -10393 -11343 -2 -1 3 0
-10391 -10394 -11343 -2 3 0
-10397 -10400 -11344 -2 1 0
-10397 -10401 -11344 -2 -3 1 0
-10398 -10400 -11344 -3 -2 1 0
-10398 -10401 -11344 -3 1 0
-10396 -10399 -11345 -1 2 0
-10396 -10401 -11345 -1 -3 2 0
-10398 -10399 -11345 -3 -1 2 0
-10398 -10401 -11345 -3 2 0
-10396 -10399 -11346 -1 3 0
-10396 -10400 -11346 -1 -2 3 0
-10397 -10399 -11346 -2 -1 3 0
-10397 -10400 -11346 -2 3 0
-10403 -10406 -11347 -2 1 0
-10403 -10407 -11347 -2 -3 1 0
-10404 -10406 -11347 -3 -2 1 0
-10404 -10407 -11347 -3 1 0
-10402 -10405 -11348 -1 2 0
-10402 -10407 -11348 -1 -3 2 0
-10404 -10405 -11348 -3 -1 2 0
-10404 -10407 -11348 -3 2 0
-10402 -10405 -11349 -1 3 0
-10402 -10406 -11349 -1 -2 3 0
-10403 -10405 -11349 -2 -1 3 0
-10403 -10406 -11349 -2 3 0
-10409 -10412 -11350 -2 1 0
-10409 -10413 -11350 -2 -3 1 0
-10410 -10412 -11350 -3 -2 1 0
-10410 -10413 -11350 -3 1 0
-10408 -10411 -11351 -1 2 0
-10408 -10413 -11351 -1 -3 2 0
-10410 -10411 -11351 -3 -1 2 0
-10410 -10413 -11351 -3 2 0
-10408 -10411 -11352 -1 3 0
-10408 -10412 -11352 -1 -2 3 0
-10409 -10411 -11352 -2 -1 3 0
-10409 -10412 -11352 -2 3 0
-10415 -10418 -11353 -2 1 0
-10415 -10419 -11353 -2 -3 1 0
-10416 -10418 -11353 -3 -2 1 0
-10416 -10419 -11353 -3 1 0
-10414 -10417 -11354 -1 2 0
-10414 -10419 -11354 -1 -3 2 0
-10416 -10417 -11354 -3 -1 2 0
-10416 -10419 -11354 -3 2 0
-10414 -10417 -11355 -1 3 0
-10414 -10418 -11355 -1 -2 3 0
-10415 -10417 -11355 -2 -1 3 0
-10415 -10418 -11355 -2 3 0
-10421 -10424 -11356 -2 1 0
-10421 -10425 -11356 -2 -3 1 0
-10422 -10424 -11356 -3 -2 1 0
-10422 -10425 -11356 -3 1 0
-10420 -10423 -11357 -1 2 0
-10420 -10425 -11357 -1 -3 2 0
-10422 -10423 -11357 -3 -1 2 0
-10422 -10425 -11357 -3 2 0
-10420 -10423 -11358 -1 3 0
-10420 -10424 -11358 -1 -2 3 0
-10421 -10423 -11358 -2 -1 3 0
-10421 -10424 -11358 -2 3 0
-10427 -10430 -11359 -2 1 0
-10427 -10431 -11359 -2 -3 1 0
-10428 -10430 -11359 -3 -2 1 0
-10428 -10431 -11359 -3 1 0
-10426 -10429 -11360 -1 2 0
-10426 -10431 -11360 -1 -3 2 0
-10428 -10429 -11360 -3 -1 2 0
-10428 -10431 -11360 -3 2 0
-10426 -10429 -11361 -1 3 0
-10426 -10430 -11361 -1 -2 3 0
-10427 -10429 -11361 -2 -1 3 0
-10427 -10430 -11361 -2 3 0
-10433 -10436 -11362 -2 1 0
-10433 -10437 -11362 -2 -3 1 0
-10434 -10436 -11362 -3 -2 1 0
-10434 -10437 -11362 -3 1 0
-10432 -10435 -11363 -1 2 0
-10432 -10437 -11363 -1 -3 2 0
-10434 -10435 -11363 -3 -1 2 0
-10434 -10437 -11363 -3 2 0
-10432 -10435 -11364 -1 3 0
-10432 -10436 -11364 -1 -2 3 0
-10433 -10435 -11364 -2 -1 3 0
-10433 -10436 -11364 -2 3 0
-10439 -10442 -11365 -2 1 0
-10439 -10443 -11365 -2 -3 1 0
-10440 -10442 -11365 -3 -2 1 0
-10440 -10443 -11365 -3 1 0
-10438 -10441 -11366 -1 2 0
-10438 -10443 -11366 -1 -3 2 0
-10440 -10441 -11366 -3 -1 2 0
-10440 -10443 -11366 -3 2 0
-10438 -10441 -11367 -1 3 0
-10438 -10442 -11367 -1 -2 3 0
-10439 -10441 -11367 -2 -1 3 0
-10439 -10442 -11367 -2 3 0
-10445 -10448 -11368 -2 1 0
-10445 -10449 -11368 -2 -3 1 0
-10446 -10448 -11368 -3 -2 1 0
-10446 -10449 -11368 -3 1 0
-10444 -10447 -11369 -1 2 0
-10444 -10449 -11369 -1 -3 2 0
-10446 -10447 -11369 -3 -1 2 0
-10446 -10449 -11369 -3 2 0
-10444 -10447 -11370 -1 3 0
-10444 -10448 -11370 -1 -2 3 0
-10445 -10447 -11370 -2 -1 3 0
-10445 -10448 -11370 -2 3 0
-10451 -10454 -11371 -2 1 0
-10451 -10455 -11371 -2 -3 1 0
-10452 -10454 -11371 -3 -2 1 0
-10452 -10455 -11371 -3 1 0
-10450 -10453 -11372 -1 2 0
-10450 -10455 -11372 -1 -3 2 0
-10452 -10453 -11372 -3 -1 2 0
-10452 -10455 -11372 -3 2 0
-10450 -10453 -11373 -1 3 0
-10450 -10454 -11373 -1 -2 3 0
-10451 -10453 -11373 -2 -1 3 0
-10451 -10454 -11373 -2 3 0
-10457 -10460 -11374 -2 1 0
-10457 -10461 -11374 -2 -3 1 0
-10458 -10460 -11374 -3 -2 1 0
-10458 -10461 -11374 -3 1 0
-10456 -10459 -11375 -1 2 0
-10456 -10461 -11375 -1 -3 2 0
-10458 -10459 -11375 -3 -1 2 0
-10458 -10461 -11375 -3 2 0
-10456 -10459 -11376 -1 3 0
-10456 -10460 -11376 -1 -2 3 0
-10457 -10459 -11376 -2 -1 3 0
-10457 -10460 -11376 -2 3 0
-10463 -10466 -11377 -2 1 0
-10463 -10467 -11377 -2 -3 1 0
-10464 -10466 -11377 -3 -2 1 0
-10464 -10467 -11377 -3 1 0
-10462 -10465 -11378 -1 2 0
-10462 -10467 -11378 -1 -3 2 0
-10464 -10465 -11378 -3 -1 2 0
-10464 -10467 -11378 -3 2 0
-10462 -10465 -11379 -1 3 0
-10462 -10466 -11379 -1 -2 3 0
-10463 -10465 -11379 -2 -1 3 0
-10463 -10466 -11379 -2 3 0
-10469 -10472 -11380 -2 1 0
-10469 -10473 -11380 -2 -3 1 0
-10470 -10472 -11380 -3 -2 1 0
-10470 -10473 -11380 -3 1 0
-10468 -10471 -11381 -1 2 0
-10468 -10473 -11381 -1 -3 2 0
-10470 -10471 -11381 -3 -1 2 0
-10470 -10473 -11381 -3 2 0
-10468 -10471 -11382 -1 3 0
-10468 -10472 -11382 -1 -2 3 0
-10469 -10471 -11382 -2 -1 3 0
-10469 -10472 -11382 -2 3 0
-10475 -10478 -11383 -2 1 0
-10475 -10479 -11383 -2 -3 1 0
-10476 -10478 -11383 -3 -2 1 0
-10476 -10479 -11383 -3 1 0
-10474 -10477 -11384 -1 2 0
-10474 -10479 -11384 -1 -3 2 0
-10476 -10477 -11384 -3 -1 2 0
-10476 -10479 -11384 -3 2 0
-10474 -10477 -11385 -1 3 0
-10474 -10478 -11385 -1 -2 3 0
-10475 -10477 -11385 -2 -1 3 0
-10475 -10478 -11385 -2 3 0
-10481 -10484 -11386 -2 1 0
-10481 -10485 -11386 -2 -3 1 0
-10482 -10484 -11386 -3 -2 1 0
-10482 -10485 -11386 -3 1 0
-10480 -10483 -11387 -1 2 0
-10480 -10485 -11387 -1 -3 2 0
-10482 -10483 -11387 -3 -1 2 0
-10482 -10485 -11387 -3 2 0
-10480 -10483 -11388 -1 3 0
-10480 -10484 -11388 -1 -2 3 0
-10481 -10483 -11388 -2 -1 3 0
-10481 -10484 -11388 -2 3 0
-10487 -10490 -11389 -2 1 0
-10487 -10491 -11389 -2 -3 1 0
-10488 -10490 -11389 -3 -2 1 0
-10488 -10491 -11389 -3 1 0
-10486 -10489 -11390 -1 2 0
-10486 -10491 -11390 -1 -3 2 0
-10488 -10489 -11390 -3 -1 2 0
-10488 -10491 -11390 -3 2 0
-10486 -10489 -11391 -1 3 0
-10486 -10490 -11391 -1 -2 3 0
-10487 -10489 -11391 -2 -1 3 0
-10487 -10490 -11391 -2 3 0
-10493 -10496 -11392 -2 1 0
-10493 -10497 -11392 -2 -3 1 0
-10494 -10496 -11392 -3 -2 1 0
-10494 -10497 -11392 -3 1 0
-10492 -10495 -11393 -1 2 0
-10492 -10497 -11393 -1 -3 2 0
-10494 -10495 -11393 -3 -1 2 0
-10494 -10497 -11393 -3 2 0
-10492 -10495 -11394 -1 3 0
-10492 -10496 -11394 -1 -2 3 0
-10493 -10495 -11394 -2 -1 3 0
-10493 -10496 -11394 -2 3 0
-10499 -10502 -11395 -2 1 0
-10499 -10503 -11395 -2 -3 1 0
-10500 -10502 -11395 -3 -2 1 0
-10500 -10503 -11395 -3 1 0
-10498 -10501 -11396 -1 2 0
-10498 -10503 -11396 -1 -3 2 0
-10500 -10501 -11396 -3 -1 2 0
-10500 -10503 -11396 -3 2 0
-10498 -10501 -11397 -1 3 0
-10498 -10502 -11397 -1 -2 3 0
-10499 -10501 -11397 -2 -1 3 0
-10499 -10502 -11397 -2 3 0
-10505 -10508 -11398 -2 1 0
-10505 -10509 -11398 -2 -3 1 0
-10506 -10508 -11398 -3 -2 1 0
-10506 -10509 -11398 -3 1 0
-10504 -10507 -11399 -1 2 0
-10504 -10509 -11399 -1 -3 2 0
-10506 -10507 -11399 -3 -1 2 0
-10506 -10509 -11399 -3 2 0
-10504 -10507 -11400 -1 3 0
-10504 -10508 -11400 -1 -2 3 0
-10505 -10507 -11400 -2 -1 3 0
-10505 -10508 -11400 -2 3 0
-10511 -10514 -11401 -2 1 0
-10511 -10515 -11401 -2 -3 1 0
-10512 -10514 -11401 -3 -2 1 0
-10512 -10515 -11401 -3 1 0
-10510 -10513 -11402 -1 2 0
-10510 -10515 -11402 -1 -3 2 0
-10512 -10513 -11402 -3 -1 2 0
-10512 -10515 -11402 -3 2 0
-10510 -10513 -11403 -1 3 0
-10510 -10514 -11403 -1 -2 3 0
-10511 -10513 -11403 -2 -1 3 0
-10511 -10514 -11403 -2 3 0
-10517 -10520 -11404 -2 1 0
-10517 -10521 -11404 -2 -3 1 0
-10518 -10520 -11404 -3 -2 1 0
-10518 -10521 -11404 -3 1 0
-10516 -10519 -11405 -1 2 0
-10516 -10521 -11405 -1 -3 2 0
-10518 -10519 -11405 -3 -1 2 0
-10518 -10521 -11405 -3 2 0
-10516 -10519 -11406 -1 3 0
-10516 -10520 -11406 -1 -2 3 0
-10517 -10519 -11406 -2 -1 3 0
-10517 -10520 -11406 -2 3 0
-10523 -10526 -11407 -2 1 0
-10523 -10527 -11407 -2 -3 1 0
-10524 -10526 -11407 -3 -2 1 0
-10524 -10527 -11407 -3 1 0
-10522 -10525 -11408 -1 2 0
-10522 -10527 -11408 -1 -3 2 0
-10524 -10525 -11408 -3 -1 2 0
-10524 -10527 -11408 -3 2 0
-10522 -10525 -11409 -1 3 0
-10522 -10526 -11409 -1 -2 3 0
-10523 -10525 -11409 -2 -1 3 0
-10523 -10526 -11409 -2 3 0
-10529 -10532 -11410 -2 1 0
-10529 -10533 -11410 -2 -3 1 0
-10530 -10532 -11410 -3 -2 1 0
-10530 -10533 -11410 -3 1 0
-10528 -10531 -11411 -1 2 0
-10528 -10533 -11411 -1 -3 2 0
-10530 -10531 -11411 -3 -1 2 0
-10530 -10533 -11411 -3 2 0
-10528 -10531 -11412 -1 3 0
-10528 -10532 -11412 -1 -2 3 0
-10529 -10531 -11412 -2 -1 3 0
-10529 -10532 -11412 -2 3 0
-10535 -10538 -11413 -2 1 0
-10535 -10539 -11413 -2 -3 1 0
-10536 -10538 -11413 -3 -2 1 0
-10536 -10539 -11413 -3 1 0
-10534 -10537 -11414 -1 2 0
-10534 -10539 -11414 -1 -3 2 0
-10536 -10537 -11414 -3 -1 2 0
-10536 -10539 -11414 -3 2 0
-10534 -10537 -11415 -1 3 0
-10534 -10538 -11415 -1 -2 3 0
-10535 -10537 -11415 -2 -1 3 0
-10535 -10538 -11415 -2 3 0
-10541 -10544 -11416 -2 1 0
-10541 -10545 -11416 -2 -3 1 0
-10542 -10544 -11416 -3 -2 1 0
-10542 -10545 -11416 -3 1 0
-10540 -10543 -11417 -1 2 0
-10540 -10545 -11417 -1 -3 2 0
-10542 -10543 -11417 -3 -1 2 0
-10542 -10545 -11417 -3 2 0
-10540 -10543 -11418 -1 3 0
-10540 -10544 -11418 -1 -2 3 0
-10541 -10543 -11418 -2 -1 3 0
-10541 -10544 -11418 -2 3 0
-10547 -10550 -11419 -2 1 0
-10547 -10551 -11419 -2 -3 1 0
-10548 -10550 -11419 -3 -2 1 0
-10548 -10551 -11419 -3 1 0
-10546 -10549 -11420 -1 2 0
-10546 -10551 -11420 -1 -3 2 0
-10548 -10549 -11420 -3 -1 2 0
-10548 -10551 -11420 -3 2 0
-10546 -10549 -11421 -1 3 0
-10546 -10550 -11421 -1 -2 3 0
-10547 -10549 -11421 -2 -1 3 0
-10547 -10550 -11421 -2 3 0
-10553 -10556 -11422 -2 1 0
-10553 -10557 -11422 -2 -3 1 0
-10554 -10556 -11422 -3 -2 1 0
-10554 -10557 -11422 -3 1 0
-10552 -10555 -11423 -1 2 0
-10552 -10557 -11423 -1 -3 2 0
-10554 -10555 -11423 -3 -1 2 0
-10554 -10557 -11423 -3 2 0
-10552 -10555 -11424 -1 3 0
-10552 -10556 -11424 -1 -2 3 0
-10553 -10555 -11424 -2 -1 3 0
-10553 -10556 -11424 -2 3 0
-10559 -10562 -11425 -2 1 0
-10559 -10563 -11425 -2 -3 1 0
-10560 -10562 -11425 -3 -2 1 0
-10560 -10563 -11425 -3 1 0
-10558 -10561 -11426 -1 2 0
-10558 -10563 -11426 -1 -3 2 0
-10560 -10561 -11426 -3 -1 2 0
-10560 -10563 -11426 -3 2 0
-10558 -10561 -11427 -1 3 0
-10558 -10562 -11427 -1 -2 3 0
-10559 -10561 -11427 -2 -1 3 0
-10559 -10562 -11427 -2 3 0
-10565 -10568 -11428 -2 1 0
-10565 -10569 -11428 -2 -3 1 0
-10566 -10568 -11428 -3 -2 1 0
-10566 -10569 -11428 -3 1 0
-10564 -10567 -11429 -1 2 0
-10564 -10569 -11429 -1 -3 2 0
-10566 -10567 -11429 -3 -1 2 0
-10566 -10569 -11429 -3 2 0
-10564 -10567 -11430 -1 3 0
-10564 -10568 -11430 -1 -2 3 0
-10565 -10567 -11430 -2 -1 3 0
-10565 -10568 -11430 -2 3 0
-10571 -10574 -11431 -2 1 0
-10571 -10575 -11431 -2 -3 1 0
-10572 -10574 -11431 -3 -2 1 0
-10572 -10575 -11431 -3 1 0
-10570 -10573 -11432 -1 2 0
-10570 -10575 -11432 -1 -3 2 0
-10572 -10573 -11432 -3 -1 2 0
-10572 -10575 -11432 -3 2 0
-10570 -10573 -11433 -1 3 0
-10570 -10574 -11433 -1 -2 3 0
-10571 -10573 -11433 -2 -1 3 0
-10571 -10574 -11433 -2 3 0
-10577 -10580 -11434 -2 1 0
-10577 -10581 -11434 -2 -3 1 0
-10578 -10580 -11434 -3 -2 1 0
-10578 -10581 -11434 -3 1 0
-10576 -10579 -11435 -1 2 0
-10576 -10581 -11435 -1 -3 2 0
-10578 -10579 -11435 -3 -1 2 0
-10578 -10581 -11435 -3 2 0
-10576 -10579 -11436 -1 3 0
-10576 -10580 -11436 -1 -2 3 0
-10577 -10579 -11436 -2 -1 3 0
-10577 -10580 -11436 -2 3 0
-10583 -10586 -11437 -2 1 0
-10583 -10587 -11437 -2 -3 1 0
-10584 -10586 -11437 -3 -2 1 0
-10584 -10587 -11437 -3 1 0
-10582 -10585 -11438 -1 2 0
-10582 -10587 -11438 -1 -3 2 0
-10584 -10585 -11438 -3 -1 2 0
-10584 -10587 -11438 -3 2 0
-10582 -10585 -11439 -1 3 0
-10582 -10586 -11439 -1 -2 3 0
-10583 -10585 -11439 -2 -1 3 0
-10583 -10586 -11439 -2 3 0
-10589 -10592 -11440 -2 1 0
-10589 -10593 -11440 -2 -3 1 0
-10590 -10592 -11440 -3 -2 1 0
-10590 -10593 -11440 -3 1 0
-10588 -10591 -11441 -1 2 0
-10588 -10593 -11441 -1 -3 2 0
-10590 -10591 -11441 -3 -1 2 0
-10590 -10593 -11441 -3 2 0
-10588 -10591 -11442 -1 3 0
-10588 -10592 -11442 -1 -2 3 0
-10589 -10591 -11442 -2 -1 3 0
-10589 -10592 -11442 -2 3 0
-10595 -10598 -11443 -2 1 0
-10595 -10599 -11443 -2 -3 1 0
-10596 -10598 -11443 -3 -2 1 0
-10596 -10599 -11443 -3 1 0
-10594 -10597 -11444 -1 2 0
-10594 -10599 -11444 -1 -3 2 0
-10596 -10597 -11444 -3 -1 2 0
-10596 -10599 -11444 -3 2 0
-10594 -10597 -11445 -1 3 0
-10594 -10598 -11445 -1 -2 3 0
-10595 -10597 -11445 -2 -1 3 0
-10595 -10598 -11445 -2 3 0
-10601 -10604 -11446 -2 1 0
-10601 -10605 -11446 -2 -3 1 0
-10602 -10604 -11446 -3 -2 1 0
-10602 -10605 -11446 -3 1 0
-10600 -10603 -11447 -1 2 0
-10600 -10605 -11447 -1 -3 2 0
-10602 -10603 -11447 -3 -1 2 0
-10602 -10605 -11447 -3 2 0
-10600 -10603 -11448 -1 3 0
-10600 -10604 -11448 -1 -2 3 0
-10601 -10603 -11448 -2 -1 3 0
-10601 -10604 -11448 -2 3 0
-10607 -10610 -11449 -2 1 0
-10607 -10611 -11449 -2 -3 1 0
-10608 -10610 -11449 -3 -2 1 0
-10608 -10611 -11449 -3 1 0
-10606 -10609 -11450 -1 2 0
-10606 -10611 -11450 -1 -3 2 0
-10608 -10609 -11450 -3 -1 2 0
-10608 -10611 -11450 -3 2 0
-10606 -10609 -11451 -1 3 0
-10606 -10610 -11451 -1 -2 3 0
-10607 -10609 -11451 -2 -1 3 0
-10607 -10610 -11451 -2 3 0
-10613 -10616 -11452 -2 1 0
-10613 -10617 -11452 -2 -3 1 0
-10614 -10616 -11452 -3 -2 1 0
-10614 -10617 -11452 -3 1 0
-10612 -10615 -11453 -1 2 0
-10612 -10617 -11453 -1 -3 2 0
-10614 -10615 -11453 -3 -1 2 0
-10614 -10617 -11453 -3 2 0
-10612 -10615 -11454 -1 3 0
-10612 -10616 -11454 -1 -2 3 0
-10613 -10615 -11454 -2 -1 3 0
-10613 -10616 -11454 -2 3 0
-10619 -10622 -11455 -2 1 0
-10619 -10623 -11455 -2 -3 1 0
-10620 -10622 -11455 -3 -2 1 0
-10620 -10623 -11455 -3 1 0
-10618 -10621 -11456 -1 2 0
-10618 -10623 -11456 -1 -3 2 0
-10620 -10621 -11456 -3 -1 2 0
-10620 -10623 -11456 -3 2 0
-10618 -10621 -11457 -1 3 0
-10618 -10622 -11457 -1 -2 3 0
-10619 -10621 -11457 -2 -1 3 0
-10619 -10622 -11457 -2 3 0
-10625 -10628 -11458 -2 1 0
-10625 -10629 -11458 -2 -3 1 0
-10626 -10628 -11458 -3 -2 1 0
-10626 -10629 -11458 -3 1 0
-10624 -10627 -11459 -1 2 0
-10624 -10629 -11459 -1 -3 2 0
-10626 -10627 -11459 -3 -1 2 0
-10626 -10629 -11459 -3 2 0
-10624 -10627 -11460 -1 3 0
-10624 -10628 -11460 -1 -2 3 0
-10625 -10627 -11460 -2 -1 3 0
-10625 -10628 -11460 -2 3 0
-10631 -10634 -11461 -2 1 0
-10631 -10635 -11461 -2 -3 1 0
-10632 -10634 -11461 -3 -2 1 0
-10632 -10635 -11461 -3 1 0
-10630 -10633 -11462 -1 2 0
-10630 -10635 -11462 -1 -3 2 0
-10632 -10633 -11462 -3 -1 2 0
-10632 -10635 -11462 -3 2 0
-10630 -10633 -11463 -1 3 0
-10630 -10634 -11463 -1 -2 3 0
-10631 -10633 -11463 -2 -1 3 0
-10631 -10634 -11463 -2 3 0
-10637 -10640 -11464 -2 1 0
-10637 -10641 -11464 -2 -3 1 0
-10638 -10640 -11464 -3 -2 1 0
-10638 -10641 -11464 -3 1 0
-10636 -10639 -11465 -1 2 0
-10636 -10641 -11465 -1 -3 2 0
-10638 -10639 -11465 -3 -1 2 0
-10638 -10641 -11465 -3 2 0
-10636 -10639 -11466 -1 3 0
-10636 -10640 -11466 -1 -2 3 0
-10637 -10639 -11466 -2 -1 3 0
-10637 -10640 -11466 -2 3 0
-10643 -10646 -11467 -2 1 0
-10643 -10647 -11467 -2 -3 1 0
-10644 -10646 -11467 -3 -2 1 0
-10644 -10647 -11467 -3 1 0
-10642 -10645 -11468 -1 2 0
-10642 -10647 -11468 -1 -3 2 0
-10644 -10645 -11468 -3 -1 2 0
-10644 -10647 -11468 -3 2 0
-10642 -10645 -11469 -1 3 0
-10642 -10646 -11469 -1 -2 3 0
-10643 -10645 -11469 -2 -1 3 0
-10643 -10646 -11469 -2 3 0
-10649 -10652 -11470 -2 1 0
-10649 -10653 -11470 -2 -3 1 0
-10650 -10652 -11470 -3 -2 1 0
-10650 -10653 -11470 -3 1 0
-10648 -10651 -11471 -1 2 0
-10648 -10653 -11471 -1 -3 2 0
-10650 -10651 -11471 -3 -1 2 0
-10650 -10653 -11471 -3 2 0
-10648 -10651 -11472 -1 3 0
-10648 -10652 -11472 -1 -2 3 0
-10649 -10651 -11472 -2 -1 3 0
-10649 -10652 -11472 -2 3 0
-10655 -10658 -11473 -2 1 0
-10655 -10659 -11473 -2 -3 1 0
-10656 -10658 -11473 -3 -2 1 0
-10656 -10659 -11473 -3 1 0
-10654 -10657 -11474 -1 2 0
-10654 -10659 -11474 -1 -3 2 0
-10656 -10657 -11474 -3 -1 2 0
-10656 -10659 -11474 -3 2 0
-10654 -10657 -11475 -1 3 0
-10654 -10658 -11475 -1 -2 3 0
-10655 -10657 -11475 -2 -1 3 0
-10655 -10658 -11475 -2 3 0
-10661 -10664 -11476 -2 1 0
-10661 -10665 -11476 -2 -3 1 0
-10662 -10664 -11476 -3 -2 1 0
-10662 -10665 -11476 -3 1 0
-10660 -10663 -11477 -1 2 0
-10660 -10665 -11477 -1 -3 2 0
-10662 -10663 -11477 -3 -1 2 0
-10662 -10665 -11477 -3 2 0
-10660 -10663 -11478 -1 3 0
-10660 -10664 -11478 -1 -2 3 0
-10661 -10663 -11478 -2 -1 3 0
-10661 -10664 -11478 -2 3 0
-10667 -10670 -11479 -2 1 0
-10667 -10671 -11479 -2 -3 1 0
-10668 -10670 -11479 -3 -2 1 0
-10668 -10671 -11479 -3 1 0
-10666 -10669 -11480 -1 2 0
-10666 -10671 -11480 -1 -3 2 0
-10668 -10669 -11480 -3 -1 2 0
-10668 -10671 -11480 -3 2 0
-10666 -10669 -11481 -1 3 0
-10666 -10670 -11481 -1 -2 3 0
-10667 -10669 -11481 -2 -1 3 0
-10667 -10670 -11481 -2 3 0
-10673 -10676 -11482 -2 1 0
-10673 -10677 -11482 -2 -3 1 0
-10674 -10676 -11482 -3 -2 1 0
-10674 -10677 -11482 -3 1 0
-10672 -10675 -11483 -1 2 0
-10672 -10677 -11483 -1 -3 2 0
-10674 -10675 -11483 -3 -1 2 0
-10674 -10677 -11483 -3 2 0
-10672 -10675 -11484 -1 3 0
-10672 -10676 -11484 -1 -2 3 0
-10673 -10675 -11484 -2 -1 3 0
-10673 -10676 -11484 -2 3 0
-10679 -10682 -11485 -2 1 0
-10679 -10683 -11485 -2 -3 1 0
-10680 -10682 -11485 -3 -2 1 0
-10680 -10683 -11485 -3 1 0
-10678 -10681 -11486 -1 2 0
-10678 -10683 -11486 -1 -3 2 0
-10680 -10681 -11486 -3 -1 2 0
-10680 -10683 -11486 -3 2 0
-10678 -10681 -11487 -1 3 0
-10678 -10682 -11487 -1 -2 3 0
-10679 -10681 -11487 -2 -1 3 0
-10679 -10682 -11487 -2 3 0
-10685 -10688 -11488 -2 1 0
-10685 -10689 -11488 -2 -3 1 0
-10686 -10688 -11488 -3 -2 1 0
-10686 -10689 -11488 -3 1 0
-10684 -10687 -11489 -1 2 0
-10684 -10689 -11489 -1 -3 2 0
-10686 -10687 -11489 -3 -1 2 0
-10686 -10689 -11489 -3 2 0
-10684 -10687 -11490 -1 3 0
-10684 -10688 -11490 -1 -2 3 0
-10685 -10687 -11490 -2 -1 3 0
-10685 -10688 -11490 -2 3 0
-10691 -10694 -11491 -2 1 0
-10691 -10695 -11491 -2 -3 1 0
-10692 -10694 -11491 -3 -2 1 0
-10692 -10695 -11491 -3 1 0
-10690 -10693 -11492 -1 2 0
-10690 -10695 -11492 -1 -3 2 0
-10692 -10693 -11492 -3 -1 2 0
-10692 -10695 -11492 -3 2 0
-10690 -10693 -11493 -1 3 0
-10690 -10694 -11493 -1 -2 3 0
-10691 -10693 -11493 -2 -1 3 0
-10691 -10694 -11493 -2 3 0
-10697 -10700 -11494 -2 1 0
-10697 -10701 -11494 -2 -3 1 0
-10698 -10700 -11494 -3 -2 1 0
-10698 -10701 -11494 -3 1 0
-10696 -10699 -11495 -1 2 0
-10696 -10701 -11495 -1 -3 2 0
-10698 -10699 -11495 -3 -1 2 0
-10698 -10701 -11495 -3 2 0
-10696 -10699 -11496 -1 3 0
-10696 -10700 -11496 -1 -2 3 0
-10697 -10699 -11496 -2 -1 3 0
-10697 -10700 -11496 -2 3 0
-10703 -10706 -11497 -2 1 0
-10703 -10707 -11497 -2 -3 1 0
-10704 -10706 -11497 -3 -2 1 0
-10704 -10707 -11497 -3 1 0
-10702 -10705 -11498 -1 2 0
-10702 -10707 -11498 -1 -3 2 0
-10704 -10705 -11498 -3 -1 2 0
-10704 -10707 -11498 -3 2 0
-10702 -10705 -11499 -1 3 0
-10702 -10706 -11499 -1 -2 3 0
-10703 -10705 -11499 -2 -1 3 0
-10703 -10706 -11499 -2 3 0
-10709 -10712 -11500 -2 1 0
-10709 -10713 -11500 -2 -3 1 0
-10710 -10712 -11500 -3 -2 1 0
-10710 -10713 -11500 -3 1 0
-10708 -10711 -11501 -1 2 0
-10708 -10713 -11501 -1 -3 2 0
-10710 -10711 -11501 -3 -1 2 0
-10710 -10713 -11501 -3 2 0
-10708 -10711 -11502 -1 3 0
-10708 -10712 -11502 -1 -2 3 0
-10709 -10711 -11502 -2 -1 3 0
-10709 -10712 -11502 -2 3 0
-10715 -10718 -11503 -2 1 0
-10715 -10719 -11503 -2 -3 1 0
-10716 -10718 -11503 -3 -2 1 0
-10716 -10719 -11503 -3 1 0
-10714 -10717 -11504 -1 2 0
-10714 -10719 -11504 -1 -3 2 0
-10716 -10717 -11504 -3 -1 2 0
-10716 -10719 -11504 -3 2 0
-10714 -10717 -11505 -1 3 0
-10714 -10718 -11505 -1 -2 3 0
-10715 -10717 -11505 -2 -1 3 0
-10715 -10718 -11505 -2 3 0
-10721 -10724 -11506 -2 1 0
-10721 -10725 -11506 -2 -3 1 0
-10722 -10724 -11506 -3 -2 1 0
-10722 -10725 -11506 -3 1 0
-10720 -10723 -11507 -1 2 0
-10720 -10725 -11507 -1 -3 2 0
-10722 -10723 -11507 -3 -1 2 0
-10722 -10725 -11507 -3 2 0
-10720 -10723 -11508 -1 3 0
-10720 -10724 -11508 -1 -2 3 0
-10721 -10723 -11508 -2 -1 3 0
-10721 -10724 -11508 -2 3 0
-10727 -10730 -11509 -2 1 0
-10727 -10731 -11509 -2 -3 1 0
-10728 -10730 -11509 -3 -2 1 0
-10728 -10731 -11509 -3 1 0
-10726 -10729 -11510 -1 2 0
-10726 -10731 -11510 -1 -3 2 0
-10728 -10729 -11510 -3 -1 2 0
-10728 -10731 -11510 -3 2 0
-10726 -10729 -11511 -1 3 0
-10726 -10730 -11511 -1 -2 3 0
-10727 -10729 -11511 -2 -1 3 0
-10727 -10730 -11511 -2 3 0
-10733 -10736 -11512 -2 1 0
-10733 -10737 -11512 -2 -3 1 0
-10734 -10736 -11512 -3 -2 1 0
-10734 -10737 -11512 -3 1 0
-10732 -10735 -11513 -1 2 0
-10732 -10737 -11513 -1 -3 2 0
-10734 -10735 -11513 -3 -1 2 0
-10734 -10737 -11513 -3 2 0
-10732 -10735 -11514 -1 3 0
-10732 -10736 -11514 -1 -2 3 0
-10733 -10735 -11514 -2 -1 3 0
-10733 -10736 -11514 -2 3 0
-10739 -10742 -11515 -2 1 0
-10739 -10743 -11515 -2 -3 1 0
-10740 -10742 -11515 -3 -2 1 0
-10740 -10743 -11515 -3 1 0
-10738 -10741 -11516 -1 2 0
-10738 -10743 -11516 -1 -3 2 0
-10740 -10741 -11516 -3 -1 2 0
-10740 -10743 -11516 -3 2 0
-10738 -10741 -11517 -1 3 0
-10738 -10742 -11517 -1 -2 3 0
-10739 -10741 -11517 -2 -1 3 0
-10739 -10742 -11517 -2 3 0
-10745 -10748 -11518 -2 1 0
-10745 -10749 -11518 -2 -3 1 0
-10746 -10748 -11518 -3 -2 1 0
-10746 -10749 -11518 -3 1 0
-10744 -10747 -11519 -1 2 0
-10744 -10749 -11519 -1 -3 2 0
-10746 -10747 -11519 -3 -1 2 0
-10746 -10749 -11519 -3 2 0
-10744 -10747 -11520 -1 3 0
-10744 -10748 -11520 -1 -2 3 0
-10745 -10747 -11520 -2 -1 3 0
-10745 -10748 -11520 -2 3 0
-10751 -10754 -11521 -2 1 0
-10751 -10755 -11521 -2 -3 1 0
-10752 -10754 -11521 -3 -2 1 0
-10752 -10755 -11521 -3 1 0
-10750 -10753 -11522 -1 2 0
-10750 -10755 -11522 -1 -3 2 0
-10752 -10753 -11522 -3 -1 2 0
-10752 -10755 -11522 -3 2 0
-10750 -10753 -11523 -1 3 0
-10750 -10754 -11523 -1 -2 3 0
-10751 -10753 -11523 -2 -1 3 0
-10751 -10754 -11523 -2 3 0
-10757 -10760 -11524 -2 1 0
-10757 -10761 -11524 -2 -3 1 0
-10758 -10760 -11524 -3 -2 1 0
-10758 -10761 -11524 -3 1 0
-10756 -10759 -11525 -1 2 0
-10756 -10761 -11525 -1 -3 2 0
-10758 -10759 -11525 -3 -1 2 0
-10758 -10761 -11525 -3 2 0
-10756 -10759 -11526 -1 3 0
-10756 -10760 -11526 -1 -2 3 0
-10757 -10759 -11526 -2 -1 3 0
-10757 -10760 -11526 -2 3 0
-10763 -10766 -11527 -2 1 0
-10763 -10767 -11527 -2 -3 1 0
-10764 -10766 -11527 -3 -2 1 0
-10764 -10767 -11527 -3 1 0
-10762 -10765 -11528 -1 2 0
-10762 -10767 -11528 -1 -3 2 0
-10764 -10765 -11528 -3 -1 2 0
-10764 -10767 -11528 -3 2 0
-10762 -10765 -11529 -1 3 0
-10762 -10766 -11529 -1 -2 3 0
-10763 -10765 -11529 -2 -1 3 0
-10763 -10766 -11529 -2 3 0
-10769 -10772 -11530 -2 1 0
-10769 -10773 -11530 -2 -3 1 0
-10770 -10772 -11530 -3 -2 1 0
-10770 -10773 -11530 -3 1 0
-10768 -10771 -11531 -1 2 0
-10768 -10773 -11531 -1 -3 2 0
-10770 -10771 -11531 -3 -1 2 0
-10770 -10773 -11531 -3 2 0
-10768 -10771 -11532 -1 3 0
-10768 -10772 -11532 -1 -2 3 0
-10769 -10771 -11532 -2 -1 3 0
-10769 -10772 -11532 -2 3 0
-10775 -10778 -11533 -2 1 0
-10775 -10779 -11533 -2 -3 1 0
-10776 -10778 -11533 -3 -2 1 0
-10776 -10779 -11533 -3 1 0
-10774 -10777 -11534 -1 2 0
-10774 -10779 -11534 -1 -3 2 0
-10776 -10777 -11534 -3 -1 2 0
-10776 -10779 -11534 -3 2 0
-10774 -10777 -11535 -1 3 0
-10774 -10778 -11535 -1 -2 3 0
-10775 -10777 -11535 -2 -1 3 0
-10775 -10778 -11535 -2 3 0
-10781 -10784 -11536 -2 1 0
-10781 -10785 -11536 -2 -3 1 0
-10782 -10784 -11536 -3 -2 1 0
-10782 -10785 -11536 -3 1 0
-10780 -10783 -11537 -1 2 0
-10780 -10785 -11537 -1 -3 2 0
-10782 -10783 -11537 -3 -1 2 0
-10782 -10785 -11537 -3 2 0
-10780 -10783 -11538 -1 3 0
-10780 -10784 -11538 -1 -2 3 0
-10781 -10783 -11538 -2 -1 3 0
-10781 -10784 -11538 -2 3 0
-10787 -10790 -11539 -2 1 0
-10787 -10791 -11539 -2 -3 1 0
-10788 -10790 -11539 -3 -2 1 0
-10788 -10791 -11539 -3 1 0
-10786 -10789 -11540 -1 2 0
-10786 -10791 -11540 -1 -3 2 0
-10788 -10789 -11540 -3 -1 2 0
-10788 -10791 -11540 -3 2 0
-10786 -10789 -11541 -1 3 0
-10786 -10790 -11541 -1 -2 3 0
-10787 -10789 -11541 -2 -1 3 0
-10787 -10790 -11541 -2 3 0
-10793 -10796 -11542 -2 1 0
-10793 -10797 -11542 -2 -3 1 0
-10794 -10796 -11542 -3 -2 1 0
-10794 -10797 -11542 -3 1 0
-10792 -10795 -11543 -1 2 0
-10792 -10797 -11543 -1 -3 2 0
-10794 -10795 -11543 -3 -1 2 0
-10794 -10797 -11543 -3 2 0
-10792 -10795 -11544 -1 3 0
-10792 -10796 -11544 -1 -2 3 0
-10793 -10795 -11544 -2 -1 3 0
-10793 -10796 -11544 -2 3 0
-10799 -10802 -11545 -2 1 0
-10799 -10803 -11545 -2 -3 1 0
-10800 -10802 -11545 -3 -2 1 0
-10800 -10803 -11545 -3 1 0
-10798 -10801 -11546 -1 2 0
-10798 -10803 -11546 -1 -3 2 0
-10800 -10801 -11546 -3 -1 2 0
-10800 -10803 -11546 -3 2 0
-10798 -10801 -11547 -1 3 0
-10798 -10802 -11547 -1 -2 3 0
-10799 -10801 -11547 -2 -1 3 0
-10799 -10802 -11547 -2 3 0
-10805 -10808 -11548 -2 1 0
-10805 -10809 -11548 -2 -3 1 0
-10806 -10808 -11548 -3 -2 1 0
-10806 -10809 -11548 -3 1 0
-10804 -10807 -11549 -1 2 0
-10804 -10809 -11549 -1 -3 2 0
-10806 -10807 -11549 -3 -1 2 0
-10806 -10809 -11549 -3 2 0
-10804 -10807 -11550 -1 3 0
-10804 -10808 -11550 -1 -2 3 0
-10805 -10807 -11550 -2 -1 3 0
-10805 -10808 -11550 -2 3 0
-10811 -10814 -11551 -2 1 0
-10811 -10815 -11551 -2 -3 1 0
-10812 -10814 -11551 -3 -2 1 0
-10812 -10815 -11551 -3 1 0
-10810 -10813 -11552 -1 2 0
-10810 -10815 -11552 -1 -3 2 0
-10812 -10813 -11552 -3 -1 2 0
-10812 -10815 -11552 -3 2 0
-10810 -10813 -11553 -1 3 0
-10810 -10814 -11553 -1 -2 3 0
-10811 -10813 -11553 -2 -1 3 0
-10811 -10814 -11553 -2 3 0
-10817 -10820 -11554 -2 1 0
-10817 -10821 -11554 -2 -3 1 0
-10818 -10820 -11554 -3 -2 1 0
-10818 -10821 -11554 -3 1 0
-10816 -10819 -11555 -1 2 0
-10816 -10821 -11555 -1 -3 2 0
-10818 -10819 -11555 -3 -1 2 0
-10818 -10821 -11555 -3 2 0
-10816 -10819 -11556 -1 3 0
-10816 -10820 -11556 -1 -2 3 0
-10817 -10819 -11556 -2 -1 3 0
-10817 -10820 -11556 -2 3 0
-10823 -10826 -11557 -2 1 0
-10823 -10827 -11557 -2 -3 1 0
-10824 -10826 -11557 -3 -2 1 0
-10824 -10827 -11557 -3 1 0
-10822 -10825 -11558 -1 2 0
-10822 -10827 -11558 -1 -3 2 0
-10824 -10825 -11558 -3 -1 2 0
-10824 -10827 -11558 -3 2 0
-10822 -10825 -11559 -1 3 0
-10822 -10826 -11559 -1 -2 3 0
-10823 -10825 -11559 -2 -1 3 0
-10823 -10826 -11559 -2 3 0
-10829 -10832 -11560 -2 1 0
-10829 -10833 -11560 -2 -3 1 0
-10830 -10832 -11560 -3 -2 1 0
-10830 -10833 -11560 -3 1 0
-10828 -10831 -11561 -1 2 0
-10828 -10833 -11561 -1 -3 2 0
-10830 -10831 -11561 -3 -1 2 0
-10830 -10833 -11561 -3 2 0
-10828 -10831 -11562 -1 3 0
-10828 -10832 -11562 -1 -2 3 0
-10829 -10831 -11562 -2 -1 3 0
-10829 -10832 -11562 -2 3 0
-10835 -10838 -11563 -2 1 0
-10835 -10839 -11563 -2 -3 1 0
-10836 -10838 -11563 -3 -2 1 0
-10836 -10839 -11563 -3 1 0
-10834 -10837 -11564 -1 2 0
-10834 -10839 -11564 -1 -3 2 0
-10836 -10837 -11564 -3 -1 2 0
-10836 -10839 -11564 -3 2 0
-10834 -10837 -11565 -1 3 0
-10834 -10838 -11565 -1 -2 3 0
-10835 -10837 -11565 -2 -1 3 0
-10835 -10838 -11565 -2 3 0
-10841 -10844 -11566 -2 1 0
-10841 -10845 -11566 -2 -3 1 0
-10842 -10844 -11566 -3 -2 1 0
-10842 -10845 -11566 -3 1 0
-10840 -10843 -11567 -1 2 0
-10840 -10845 -11567 -1 -3 2 0
-10842 -10843 -11567 -3 -1 2 0
-10842 -10845 -11567 -3 2 0
-10840 -10843 -11568 -1 3 0
-10840 -10844 -11568 -1 -2 3 0
-10841 -10843 -11568 -2 -1 3 0
-10841 -10844 -11568 -2 3 0
-10847 -10850 -11569 -2 1 0
-10847 -10851 -11569 -2 -3 1 0
-10848 -10850 -11569 -3 -2 1 0
-10848 -10851 -11569 -3 1 0
-10846 -10849 -11570 -1 2 0
-10846 -10851 -11570 -1 -3 2 0
-10848 -10849 -11570 -3 -1 2 0
-10848 -10851 -11570 -3 2 0
-10846 -10849 -11571 -1 3 0
-10846 -10850 -11571 -1 -2 3 0
-10847 -10849 -11571 -2 -1 3 0
-10847 -10850 -11571 -2 3 0
-10853 -10856 -11572 -2 1 0
-10853 -10857 -11572 -2 -3 1 0
-10854 -10856 -11572 -3 -2 1 0
-10854 -10857 -11572 -3 1 0
-10852 -10855 -11573 -1 2 0
-10852 -10857 -11573 -1 -3 2 0
-10854 -10855 -11573 -3 -1 2 0
-10854 -10857 -11573 -3 2 0
-10852 -10855 -11574 -1 3 0
-10852 -10856 -11574 -1 -2 3 0
-10853 -10855 -11574 -2 -1 3 0
-10853 -10856 -11574 -2 3 0
-10859 -10862 -11575 -2 1 0
-10859 -10863 -11575 -2 -3 1 0
-10860 -10862 -11575 -3 -2 1 0
-10860 -10863 -11575 -3 1 0
-10858 -10861 -11576 -1 2 0
-10858 -10863 -11576 -1 -3 2 0
-10860 -10861 -11576 -3 -1 2 0
-10860 -10863 -11576 -3 2 0
-10858 -10861 -11577 -1 3 0
-10858 -10862 -11577 -1 -2 3 0
-10859 -10861 -11577 -2 -1 3 0
-10859 -10862 -11577 -2 3 0
-10865 -10868 -11578 -2 1 0
-10865 -10869 -11578 -2 -3 1 0
-10866 -10868 -11578 -3 -2 1 0
-10866 -10869 -11578 -3 1 0
-10864 -10867 -11579 -1 2 0
-10864 -10869 -11579 -1 -3 2 0
-10866 -10867 -11579 -3 -1 2 0
-10866 -10869 -11579 -3 2 0
-10864 -10867 -11580 -1 3 0
-10864 -10868 -11580 -1 -2 3 0
-10865 -10867 -11580 -2 -1 3 0
-10865 -10868 -11580 -2 3 0
-10871 -10874 -11581 -2 1 0
-10871 -10875 -11581 -2 -3 1 0
-10872 -10874 -11581 -3 -2 1 0
-10872 -10875 -11581 -3 1 0
-10870 -10873 -11582 -1 2 0
-10870 -10875 -11582 -1 -3 2 0
-10872 -10873 -11582 -3 -1 2 0
-10872 -10875 -11582 -3 2 0
-10870 -10873 -11583 -1 3 0
-10870 -10874 -11583 -1 -2 3 0
-10871 -10873 -11583 -2 -1 3 0
-10871 -10874 -11583 -2 3 0
-10877 -10880 -11584 -2 1 0
-10877 -10881 -11584 -2 -3 1 0
-10878 -10880 -11584 -3 -2 1 0
-10878 -10881 -11584 -3 1 0
-10876 -10879 -11585 -1 2 0
-10876 -10881 -11585 -1 -3 2 0
-10878 -10879 -11585 -3 -1 2 0
-10878 -10881 -11585 -3 2 0
-10876 -10879 -11586 -1 3 0
-10876 -10880 -11586 -1 -2 3 0
-10877 -10879 -11586 -2 -1 3 0
-10877 -10880 -11586 -2 3 0
-10883 -10886 -11587 -2 1 0
-10883 -10887 -11587 -2 -3 1 0
-10884 -10886 -11587 -3 -2 1 0
-10884 -10887 -11587 -3 1 0
-10882 -10885 -11588 -1 2 0
-10882 -10887 -11588 -1 -3 2 0
-10884 -10885 -11588 -3 -1 2 0
-10884 -10887 -11588 -3 2 0
-10882 -10885 -11589 -1 3 0
-10882 -10886 -11589 -1 -2 3 0
-10883 -10885 -11589 -2 -1 3 0
-10883 -10886 -11589 -2 3 0
-10889 -10892 -11590 -2 1 0
-10889 -10893 -11590 -2 -3 1 0
-10890 -10892 -11590 -3 -2 1 0
-10890 -10893 -11590 -3 1 0
-10888 -10891 -11591 -1 2 0
-10888 -10893 -11591 -1 -3 2 0
-10890 -10891 -11591 -3 -1 2 0
-10890 -10893 -11591 -3 2 0
-10888 -10891 -11592 -1 3 0
-10888 -10892 -11592 -1 -2 3 0
-10889 -10891 -11592 -2 -1 3 0
-10889 -10892 -11592 -2 3 0
-10895 -10898 -11593 -2 1 0
-10895 -10899 -11593 -2 -3 1 0
-10896 -10898 -11593 -3 -2 1 0
-10896 -10899 -11593 -3 1 0
-10894 -10897 -11594 -1 2 0
-10894 -10899 -11594 -1 -3 2 0
-10896 -10897 -11594 -3 -1 2 0
-10896 -10899 -11594 -3 2 0
-10894 -10897 -11595 -1 3 0
-10894 -10898 -11595 -1 -2 3 0
-10895 -10897 -11595 -2 -1 3 0
-10895 -10898 -11595 -2 3 0
-10901 -10904 -11596 -2 1 0
-10901 -10905 -11596 -2 -3 1 0
-10902 -10904 -11596 -3 -2 1 0
-10902 -10905 -11596 -3 1 0
-10900 -10903 -11597 -1 2 0
-10900 -10905 -11597 -1 -3 2 0
-10902 -10903 -11597 -3 -1 2 0
-10902 -10905 -11597 -3 2 0
-10900 -10903 -11598 -1 3 0
-10900 -10904 -11598 -1 -2 3 0
-10901 -10903 -11598 -2 -1 3 0
-10901 -10904 -11598 -2 3 0
-10907 -10910 -11599 -2 1 0
-10907 -10911 -11599 -2 -3 1 0
-10908 -10910 -11599 -3 -2 1 0
-10908 -10911 -11599 -3 1 0
-10906 -10909 -11600 -1 2 0
-10906 -10911 -11600 -1 -3 2 0
-10908 -10909 -11600 -3 -1 2 0
-10908 -10911 -11600 -3 2 0
-10906 -10909 -11601 -1 3 0
-10906 -10910 -11601 -1 -2 3 0
-10907 -10909 -11601 -2 -1 3 0
-10907 -10910 -11601 -2 3 0
-10913 -10916 -11602 -2 1 0
-10913 -10917 -11602 -2 -3 1 0
-10914 -10916 -11602 -3 -2 1 0
-10914 -10917 -11602 -3 1 0
-10912 -10915 -11603 -1 2 0
-10912 -10917 -11603 -1 -3 2 0
-10914 -10915 -11603 -3 -1 2 0
-10914 -10917 -11603 -3 2 0
-10912 -10915 -11604 -1 3 0
-10912 -10916 -11604 -1 -2 3 0
-10913 -10915 -11604 -2 -1 3 0
-10913 -10916 -11604 -2 3 0
-10919 -10922 -11605 -2 1 0
-10919 -10923 -11605 -2 -3 1 0
-10920 -10922 -11605 -3 -2 1 0
-10920 -10923 -11605 -3 1 0
-10918 -10921 -11606 -1 2 0
-10918 -10923 -11606 -1 -3 2 0
-10920 -10921 -11606 -3 -1 2 0
-10920 -10923 -11606 -3 2 0
-10918 -10921 -11607 -1 3 0
-10918 -10922 -11607 -1 -2 3 0
-10919 -10921 -11607 -2 -1 3 0
-10919 -10922 -11607 -2 3 0
-10925 -10928 -11608 -2 1 0
-10925 -10929 -11608 -2 -3 1 0
-10926 -10928 -11608 -3 -2 1 0
-10926 -10929 -11608 -3 1 0
-10924 -10927 -11609 -1 2 0
-10924 -10929 -11609 -1 -3 2 0
-10926 -10927 -11609 -3 -1 2 0
-10926 -10929 -11609 -3 2 0
-10924 -10927 -11610 -1 3 0
-10924 -10928 -11610 -1 -2 3 0
-10925 -10927 -11610 -2 -1 3 0
-10925 -10928 -11610 -2 3 0
-10931 -10934 -11611 -2 1 0
-10931 -10935 -11611 -2 -3 1 0
-10932 -10934 -11611 -3 -2 1 0
-10932 -10935 -11611 -3 1 0
-10930 -10933 -11612 -1 2 0
-10930 -10935 -11612 -1 -3 2 0
-10932 -10933 -11612 -3 -1 2 0
-10932 -10935 -11612 -3 2 0
-10930 -10933 -11613 -1 3 0
-10930 -10934 -11613 -1 -2 3 0
-10931 -10933 -11613 -2 -1 3 0
-10931 -10934 -11613 -2 3 0
-10937 -10940 -11614 -2 1 0
-10937 -10941 -11614 -2 -3 1 0
-10938 -10940 -11614 -3 -2 1 0
-10938 -10941 -11614 -3 1 0
-10936 -10939 -11615 -1 2 0
-10936 -10941 -11615 -1 -3 2 0
-10938 -10939 -11615 -3 -1 2 0
-10938 -10941 -11615 -3 2 0
-10936 -10939 -11616 -1 3 0
-10936 -10940 -11616 -1 -2 3 0
-10937 -10939 -11616 -2 -1 3 0
-10937 -10940 -11616 -2 3 0
-10943 -10946 -11617 -2 1 0
-10943 -10947 -11617 -2 -3 1 0
-10944 -10946 -11617 -3 -2 1 0
-10944 -10947 -11617 -3 1 0
-10942 -10945 -11618 -1 2 0
-10942 -10947 -11618 -1 -3 2 0
-10944 -10945 -11618 -3 -1 2 0
-10944 -10947 -11618 -3 2 0
-10942 -10945 -11619 -1 3 0
-10942 -10946 -11619 -1 -2 3 0
-10943 -10945 -11619 -2 -1 3 0
-10943 -10946 -11619 -2 3 0
-10949 -10952 -11620 -2 1 0
-10949 -10953 -11620 -2 -3 1 0
-10950 -10952 -11620 -3 -2 1 0
-10950 -10953 -11620 -3 1 0
-10948 -10951 -11621 -1 2 0
-10948 -10953 -11621 -1 -3 2 0
-10950 -10951 -11621 -3 -1 2 0
-10950 -10953 -11621 -3 2 0
-10948 -10951 -11622 -1 3 0
-10948 -10952 -11622 -1 -2 3 0
-10949 -10951 -11622 -2 -1 3 0
-10949 -10952 -11622 -2 3 0
-10955 -10958 -11623 -2 1 0
-10955 -10959 -11623 -2 -3 1 0
-10956 -10958 -11623 -3 -2 1 0
-10956 -10959 -11623 -3 1 0
-10954 -10957 -11624 -1 2 0
-10954 -10959 -11624 -1 -3 2 0
-10956 -10957 -11624 -3 -1 2 0
-10956 -10959 -11624 -3 2 0
-10954 -10957 -11625 -1 3 0
-10954 -10958 -11625 -1 -2 3 0
-10955 -10957 -11625 -2 -1 3 0
-10955 -10958 -11625 -2 3 0
-10961 -10964 -11626 -2 1 0
-10961 -10965 -11626 -2 -3 1 0
-10962 -10964 -11626 -3 -2 1 0
-10962 -10965 -11626 -3 1 0
-10960 -10963 -11627 -1 2 0
-10960 -10965 -11627 -1 -3 2 0
-10962 -10963 -11627 -3 -1 2 0
-10962 -10965 -11627 -3 2 0
-10960 -10963 -11628 -1 3 0
-10960 -10964 -11628 -1 -2 3 0
-10961 -10963 -11628 -2 -1 3 0
-10961 -10964 -11628 -2 3 0
-10967 -10970 -11629 -2 1 0
-10967 -10971 -11629 -2 -3 1 0
-10968 -10970 -11629 -3 -2 1 0
-10968 -10971 -11629 -3 1 0
-10966 -10969 -11630 -1 2 0
-10966 -10971 -11630 -1 -3 2 0
-10968 -10969 -11630 -3 -1 2 0
-10968 -10971 -11630 -3 2 0
-10966 -10969 -11631 -1 3 0
-10966 -10970 -11631 -1 -2 3 0
-10967 -10969 -11631 -2 -1 3 0
-10967 -10970 -11631 -2 3 0
-10973 -10976 -11632 -2 1 0
-10973 -10977 -11632 -2 -3 1 0
-10974 -10976 -11632 -3 -2 1 0
-10974 -10977 -11632 -3 1 0
-10972 -10975 -11633 -1 2 0
-10972 -10977 -11633 -1 -3 2 0
-10974 -10975 -11633 -3 -1 2 0
-10974 -10977 -11633 -3 2 0
-10972 -10975 -11634 -1 3 0
-10972 -10976 -11634 -1 -2 3 0
-10973 -10975 -11634 -2 -1 3 0
-10973 -10976 -11634 -2 3 0
-10979 -10982 -11635 -2 1 0
-10979 -10983 -11635 -2 -3 1 0
-10980 -10982 -11635 -3 -2 1 0
-10980 -10983 -11635 -3 1 0
-10978 -10981 -11636 -1 2 0
-10978 -10983 -11636 -1 -3 2 0
-10980 -10981 -11636 -3 -1 2 0
-10980 -10983 -11636 -3 2 0
-10978 -10981 -11637 -1 3 0
-10978 -10982 -11637 -1 -2 3 0
-10979 -10981 -11637 -2 -1 3 0
-10979 -10982 -11637 -2 3 0
-10985 -10988 -11638 -2 1 0
-10985 -10989 -11638 -2 -3 1 0
-10986 -10988 -11638 -3 -2 1 0
-10986 -10989 -11638 -3 1 0
-10984 -10987 -11639 -1 2 0
-10984 -10989 -11639 -1 -3 2 0
-10986 -10987 -11639 -3 -1 2 0
-10986 -10989 -11639 -3 2 0
-10984 -10987 -11640 -1 3 0
-10984 -10988 -11640 -1 -2 3 0
-10985 -10987 -11640 -2 -1 3 0
-10985 -10988 -11640 -2 3 0
-10991 -10994 -11641 -2 1 0
-10991 -10995 -11641 -2 -3 1 0
-10992 -10994 -11641 -3 -2 1 0
-10992 -10995 -11641 -3 1 0
-10990 -10993 -11642 -1 2 0
-10990 -10995 -11642 -1 -3 2 0
-10992 -10993 -11642 -3 -1 2 0
-10992 -10995 -11642 -3 2 0
-10990 -10993 -11643 -1 3 0
-10990 -10994 -11643 -1 -2 3 0
-10991 -10993 -11643 -2 -1 3 0
-10991 -10994 -11643 -2 3 0
-10997 -11000 -11644 -2 1 0
-10997 -11001 -11644 -2 -3 1 0
-10998 -11000 -11644 -3 -2 1 0
-10998 -11001 -11644 -3 1 0
-10996 -10999 -11645 -1 2 0
-10996 -11001 -11645 -1 -3 2 0
-10998 -10999 -11645 -3 -1 2 0
-10998 -11001 -11645 -3 2 0
-10996 -10999 -11646 -1 3 0
-10996 -11000 -11646 -1 -2 3 0
-10997 -10999 -11646 -2 -1 3 0
-10997 -11000 -11646 -2 3 0
-11003 -11006 -11647 -2 1 0
-11003 -11007 -11647 -2 -3 1 0
-11004 -11006 -11647 -3 -2 1 0
-11004 -11007 -11647 -3 1 0
-11002 -11005 -11648 -1 2 0
-11002 -11007 -11648 -1 -3 2 0
-11004 -11005 -11648 -3 -1 2 0
-11004 -11007 -11648 -3 2 0
-11002 -11005 -11649 -1 3 0
-11002 -11006 -11649 -1 -2 3 0
-11003 -11005 -11649 -2 -1 3 0
-11003 -11006 -11649 -2 3 0
-11009 -11012 -11650 -2 1 0
-11009 -11013 -11650 -2 -3 1 0
-11010 -11012 -11650 -3 -2 1 0
-11010 -11013 -11650 -3 1 0
-11008 -11011 -11651 -1 2 0
-11008 -11013 -11651 -1 -3 2 0
-11010 -11011 -11651 -3 -1 2 0
-11010 -11013 -11651 -3 2 0
-11008 -11011 -11652 -1 3 0
-11008 -11012 -11652 -1 -2 3 0
-11009 -11011 -11652 -2 -1 3 0
-11009 -11012 -11652 -2 3 0
-11015 -11018 -11653 -2 1 0
-11015 -11019 -11653 -2 -3 1 0
-11016 -11018 -11653 -3 -2 1 0
-11016 -11019 -11653 -3 1 0
-11014 -11017 -11654 -1 2 0
-11014 -11019 -11654 -1 -3 2 0
-11016 -11017 -11654 -3 -1 2 0
-11016 -11019 -11654 -3 2 0
-11014 -11017 -11655 -1 3 0
-11014 -11018 -11655 -1 -2 3 0
-11015 -11017 -11655 -2 -1 3 0
-11015 -11018 -11655 -2 3 0
-11021 -11024 -11656 -2 1 0
-11021 -11025 -11656 -2 -3 1 0
-11022 -11024 -11656 -3 -2 1 0
-11022 -11025 -11656 -3 1 0
-11020 -11023 -11657 -1 2 0
-11020 -11025 -11657 -1 -3 2 0
-11022 -11023 -11657 -3 -1 2 0
-11022 -11025 -11657 -3 2 0
-11020 -11023 -11658 -1 3 0
-11020 -11024 -11658 -1 -2 3 0
-11021 -11023 -11658 -2 -1 3 0
-11021 -11024 -11658 -2 3 0
-11027 -11030 -11659 -2 1 0
-11027 -11031 -11659 -2 -3 1 0
-11028 -11030 -11659 -3 -2 1 0
-11028 -11031 -11659 -3 1 0
-11026 -11029 -11660 -1 2 0
-11026 -11031 -11660 -1 -3 2 0
-11028 -11029 -11660 -3 -1 2 0
-11028 -11031 -11660 -3 2 0
-11026 -11029 -11661 -1 3 0
-11026 -11030 -11661 -1 -2 3 0
-11027 -11029 -11661 -2 -1 3 0
-11027 -11030 -11661 -2 3 0
-11033 -11036 -11662 -2 1 0
-11033 -11037 -11662 -2 -3 1 0
-11034 -11036 -11662 -3 -2 1 0
-11034 -11037 -11662 -3 1 0
-11032 -11035 -11663 -1 2 0
-11032 -11037 -11663 -1 -3 2 0
-11034 -11035 -11663 -3 -1 2 0
-11034 -11037 -11663 -3 2 0
-11032 -11035 -11664 -1 3 0
-11032 -11036 -11664 -1 -2 3 0
-11033 -11035 -11664 -2 -1 3 0
-11033 -11036 -11664 -2 3 0
-11039 -11042 -11665 -2 1 0
-11039 -11043 -11665 -2 -3 1 0
-11040 -11042 -11665 -3 -2 1 0
-11040 -11043 -11665 -3 1 0
-11038 -11041 -11666 -1 2 0
-11038 -11043 -11666 -1 -3 2 0
-11040 -11041 -11666 -3 -1 2 0
-11040 -11043 -11666 -3 2 0
-11038 -11041 -11667 -1 3 0
-11038 -11042 -11667 -1 -2 3 0
-11039 -11041 -11667 -2 -1 3 0
-11039 -11042 -11667 -2 3 0
-11045 -11048 -11668 -2 1 0
-11045 -11049 -11668 -2 -3 1 0
-11046 -11048 -11668 -3 -2 1 0
-11046 -11049 -11668 -3 1 0
-11044 -11047 -11669 -1 2 0
-11044 -11049 -11669 -1 -3 2 0
-11046 -11047 -11669 -3 -1 2 0
-11046 -11049 -11669 -3 2 0
-11044 -11047 -11670 -1 3 0
-11044 -11048 -11670 -1 -2 3 0
-11045 -11047 -11670 -2 -1 3 0
-11045 -11048 -11670 -2 3 0
-11051 -11054 -11671 -2 1 0
-11051 -11055 -11671 -2 -3 1 0
-11052 -11054 -11671 -3 -2 1 0
-11052 -11055 -11671 -3 1 0
-11050 -11053 -11672 -1 2 0
-11050 -11055 -11672 -1 -3 2 0
-11052 -11053 -11672 -3 -1 2 0
-11052 -11055 -11672 -3 2 0
-11050 -11053 -11673 -1 3 0
-11050 -11054 -11673 -1 -2 3 0
-11051 -11053 -11673 -2 -1 3 0
-11051 -11054 -11673 -2 3 0
-11057 -11060 -11674 -2 1 0
-11057 -11061 -11674 -2 -3 1 0
-11058 -11060 -11674 -3 -2 1 0
-11058 -11061 -11674 -3 1 0
-11056 -11059 -11675 -1 2 0
-11056 -11061 -11675 -1 -3 2 0
-11058 -11059 -11675 -3 -1 2 0
-11058 -11061 -11675 -3 2 0
-11056 -11059 -11676 -1 3 0
-11056 -11060 -11676 -1 -2 3 0
-11057 -11059 -11676 -2 -1 3 0
-11057 -11060 -11676 -2 3 0
-11063 -11066 -11677 -2 1 0
-11063 -11067 -11677 -2 -3 1 0
-11064 -11066 -11677 -3 -2 1 0
-11064 -11067 -11677 -3 1 0
-11062 -11065 -11678 -1 2 0
-11062 -11067 -11678 -1 -3 2 0
-11064 -11065 -11678 -3 -1 2 0
-11064 -11067 -11678 -3 2 0
-11062 -11065 -11679 -1 3 0
-11062 -11066 -11679 -1 -2 3 0
-11063 -11065 -11679 -2 -1 3 0
-11063 -11066 -11679 -2 3 0
-11069 -11072 -11680 -2 1 0
-11069 -11073 -11680 -2 -3 1 0
-11070 -11072 -11680 -3 -2 1 0
-11070 -11073 -11680 -3 1 0
-11068 -11071 -11681 -1 2 0
-11068 -11073 -11681 -1 -3 2 0
-11070 -11071 -11681 -3 -1 2 0
-11070 -11073 -11681 -3 2 0
-11068 -11071 -11682 -1 3 0
-11068 -11072 -11682 -1 -2 3 0
-11069 -11071 -11682 -2 -1 3 0
-11069 -11072 -11682 -2 3 0
-11075 -11078 -11683 -2 1 0
-11075 -11079 -11683 -2 -3 1 0
-11076 -11078 -11683 -3 -2 1 0
-11076 -11079 -11683 -3 1 0
-11074 -11077 -11684 -1 2 0
-11074 -11079 -11684 -1 -3 2 0
-11076 -11077 -11684 -3 -1 2 0
-11076 -11079 -11684 -3 2 0
-11074 -11077 -11685 -1 3 0
-11074 -11078 -11685 -1 -2 3 0
-11075 -11077 -11685 -2 -1 3 0
-11075 -11078 -11685 -2 3 0
-11081 -11084 -11686 -2 1 0
-11081 -11085 -11686 -2 -3 1 0
-11082 -11084 -11686 -3 -2 1 0
-11082 -11085 -11686 -3 1 0
-11080 -11083 -11687 -1 2 0
-11080 -11085 -11687 -1 -3 2 0
-11082 -11083 -11687 -3 -1 2 0
-11082 -11085 -11687 -3 2 0
-11080 -11083 -11688 -1 3 0
-11080 -11084 -11688 -1 -2 3 0
-11081 -11083 -11688 -2 -1 3 0
-11081 -11084 -11688 -2 3 0
-11087 -11090 -11689 -2 1 0
-11087 -11091 -11689 -2 -3 1 0
-11088 -11090 -11689 -3 -2 1 0
-11088 -11091 -11689 -3 1 0
-11086 -11089 -11690 -1 2 0
-11086 -11091 -11690 -1 -3 2 0
-11088 -11089 -11690 -3 -1 2 0
-11088 -11091 -11690 -3 2 0
-11086 -11089 -11691 -1 3 0
-11086 -11090 -11691 -1 -2 3 0
-11087 -11089 -11691 -2 -1 3 0
-11087 -11090 -11691 -2 3 0
-11093 -11096 -11692 -2 1 0
-11093 -11097 -11692 -2 -3 1 0
-11094 -11096 -11692 -3 -2 1 0
-11094 -11097 -11692 -3 1 0
-11092 -11095 -11693 -1 2 0
-11092 -11097 -11693 -1 -3 2 0
-11094 -11095 -11693 -3 -1 2 0
-11094 -11097 -11693 -3 2 0
-11092 -11095 -11694 -1 3 0
-11092 -11096 -11694 -1 -2 3 0
-11093 -11095 -11694 -2 -1 3 0
-11093 -11096 -11694 -2 3 0
-11099 -11102 -11695 -2 1 0
-11099 -11103 -11695 -2 -3 1 0
-11100 -11102 -11695 -3 -2 1 0
-11100 -11103 -11695 -3 1 0
-11098 -11101 -11696 -1 2 0
-11098 -11103 -11696 -1 -3 2 0
-11100 -11101 -11696 -3 -1 2 0
-11100 -11103 -11696 -3 2 0
-11098 -11101 -11697 -1 3 0
-11098 -11102 -11697 -1 -2 3 0
-11099 -11101 -11697 -2 -1 3 0
-11099 -11102 -11697 -2 3 0
-11105 -11108 -11698 -2 1 0
-11105 -11109 -11698 -2 -3 1 0
-11106 -11108 -11698 -3 -2 1 0
-11106 -11109 -11698 -3 1 0
-11104 -11107 -11699 -1 2 0
-11104 -11109 -11699 -1 -3 2 0
-11106 -11107 -11699 -3 -1 2 0
-11106 -11109 -11699 -3 2 0
-11104 -11107 -11700 -1 3 0
-11104 -11108 -11700 -1 -2 3 0
-11105 -11107 -11700 -2 -1 3 0
-11105 -11108 -11700 -2 3 0
-11111 -11114 -11701 -2 1 0
-11111 -11115 -11701 -2 -3 1 0
-11112 -11114 -11701 -3 -2 1 0
-11112 -11115 -11701 -3 1 0
-11110 -11113 -11702 -1 2 0
-11110 -11115 -11702 -1 -3 2 0
-11112 -11113 -11702 -3 -1 2 0
-11112 -11115 -11702 -3 2 0
-11110 -11113 -11703 -1 3 0
-11110 -11114 -11703 -1 -2 3 0
-11111 -11113 -11703 -2 -1 3 0
-11111 -11114 -11703 -2 3 0
-11117 -11120 -11704 -2 1 0
-11117 -11121 -11704 -2 -3 1 0
-11118 -11120 -11704 -3 -2 1 0
-11118 -11121 -11704 -3 1 0
-11116 -11119 -11705 -1 2 0
-11116 -11121 -11705 -1 -3 2 0
-11118 -11119 -11705 -3 -1 2 0
-11118 -11121 -11705 -3 2 0
-11116 -11119 -11706 -1 3 0
-11116 -11120 -11706 -1 -2 3 0
-11117 -11119 -11706 -2 -1 3 0
-11117 -11120 -11706 -2 3 0
-11123 -11126 -11707 -2 1 0
-11123 -11127 -11707 -2 -3 1 0
-11124 -11126 -11707 -3 -2 1 0
-11124 -11127 -11707 -3 1 0
-11122 -11125 -11708 -1 2 0
-11122 -11127 -11708 -1 -3 2 0
-11124 -11125 -11708 -3 -1 2 0
-11124 -11127 -11708 -3 2 0
-11122 -11125 -11709 -1 3 0
-11122 -11126 -11709 -1 -2 3 0
-11123 -11125 -11709 -2 -1 3 0
-11123 -11126 -11709 -2 3 0
-11129 -11132 -11710 -2 1 0
-11129 -11133 -11710 -2 -3 1 0
-11130 -11132 -11710 -3 -2 1 0
-11130 -11133 -11710 -3 1 0
-11128 -11131 -11711 -1 2 0
-11128 -11133 -11711 -1 -3 2 0
-11130 -11131 -11711 -3 -1 2 0
-11130 -11133 -11711 -3 2 0
-11128 -11131 -11712 -1 3 0
-11128 -11132 -11712 -1 -2 3 0
-11129 -11131 -11712 -2 -1 3 0
-11129 -11132 -11712 -2 3 0
-11135 -11138 -11713 -2 1 0
-11135 -11139 -11713 -2 -3 1 0
-11136 -11138 -11713 -3 -2 1 0
-11136 -11139 -11713 -3 1 0
-11134 -11137 -11714 -1 2 0
-11134 -11139 -11714 -1 -3 2 0
-11136 -11137 -11714 -3 -1 2 0
-11136 -11139 -11714 -3 2 0
-11134 -11137 -11715 -1 3 0
-11134 -11138 -11715 -1 -2 3 0
-11135 -11137 -11715 -2 -1 3 0
-11135 -11138 -11715 -2 3 0
-11141 -11144 -11716 -2 1 0
-11141 -11145 -11716 -2 -3 1 0
-11142 -11144 -11716 -3 -2 1 0
-11142 -11145 -11716 -3 1 0
-11140 -11143 -11717 -1 2 0
-11140 -11145 -11717 -1 -3 2 0
-11142 -11143 -11717 -3 -1 2 0
-11142 -11145 -11717 -3 2 0
-11140 -11143 -11718 -1 3 0
-11140 -11144 -11718 -1 -2 3 0
-11141 -11143 -11718 -2 -1 3 0
-11141 -11144 -11718 -2 3 0
-11147 -11150 -11719 -2 1 0
-11147 -11151 -11719 -2 -3 1 0
-11148 -11150 -11719 -3 -2 1 0
-11148 -11151 -11719 -3 1 0
-11146 -11149 -11720 -1 2 0
-11146 -11151 -11720 -1 -3 2 0
-11148 -11149 -11720 -3 -1 2 0
-11148 -11151 -11720 -3 2 0
-11146 -11149 -11721 -1 3 0
-11146 -11150 -11721 -1 -2 3 0
-11147 -11149 -11721 -2 -1 3 0
-11147 -11150 -11721 -2 3 0
-11153 -11156 -11722 -2 1 0
-11153 -11157 -11722 -2 -3 1 0
-11154 -11156 -11722 -3 -2 1 0
-11154 -11157 -11722 -3 1 0
-11152 -11155 -11723 -1 2 0
-11152 -11157 -11723 -1 -3 2 0
-11154 -11155 -11723 -3 -1 2 0
-11154 -11157 -11723 -3 2 0
-11152 -11155 -11724 -1 3 0
-11152 -11156 -11724 -1 -2 3 0
-11153 -11155 -11724 -2 -1 3 0
-11153 -11156 -11724 -2 3 0
-11159 -11162 -11725 -2 1 0
-11159 -11163 -11725 -2 -3 1 0
-11160 -11162 -11725 -3 -2 1 0
-11160 -11163 -11725 -3 1 0
-11158 -11161 -11726 -1 2 0
-11158 -11163 -11726 -1 -3 2 0
-11160 -11161 -11726 -3 -1 2 0
-11160 -11163 -11726 -3 2 0
-11158 -11161 -11727 -1 3 0
-11158 -11162 -11727 -1 -2 3 0
-11159 -11161 -11727 -2 -1 3 0
-11159 -11162 -11727 -2 3 0
-11165 -11168 -11728 -2 1 0
-11165 -11169 -11728 -2 -3 1 0
-11166 -11168 -11728 -3 -2 1 0
-11166 -11169 -11728 -3 1 0
-11164 -11167 -11729 -1 2 0
-11164 -11169 -11729 -1 -3 2 0
-11166 -11167 -11729 -3 -1 2 0
-11166 -11169 -11729 -3 2 0
-11164 -11167 -11730 -1 3 0
-11164 -11168 -11730 -1 -2 3 0
-11165 -11167 -11730 -2 -1 3 0
-11165 -11168 -11730 -2 3 0
-11171 -11174 -11731 -2 1 0
-11171 -11175 -11731 -2 -3 1 0
-11172 -11174 -11731 -3 -2 1 0
-11172 -11175 -11731 -3 1 0
-11170 -11173 -11732 -1 2 0
-11170 -11175 -11732 -1 -3 2 0
-11172 -11173 -11732 -3 -1 2 0
-11172 -11175 -11732 -3 2 0
-11170 -11173 -11733 -1 3 0
-11170 -11174 -11733 -1 -2 3 0
-11171 -11173 -11733 -2 -1 3 0
-11171 -11174 -11733 -2 3 0
-11177 -11180 -11734 -2 1 0
-11177 -11181 -11734 -2 -3 1 0
-11178 -11180 -11734 -3 -2 1 0
-11178 -11181 -11734 -3 1 0
-11176 -11179 -11735 -1 2 0
-11176 -11181 -11735 -1 -3 2 0
-11178 -11179 -11735 -3 -1 2 0
-11178 -11181 -11735 -3 2 0
-11176 -11179 -11736 -1 3 0
-11176 -11180 -11736 -1 -2 3 0
-11177 -11179 -11736 -2 -1 3 0
-11177 -11180 -11736 -2 3 0
-11183 -11186 -11737 -2 1 0
-11183 -11187 -11737 -2 -3 1 0
-11184 -11186 -11737 -3 -2 1 0
-11184 -11187 -11737 -3 1 0
-11182 -11185 -11738 -1 2 0
-11182 -11187 -11738 -1 -3 2 0
-11184 -11185 -11738 -3 -1 2 0
-11184 -11187 -11738 -3 2 0
-11182 -11185 -11739 -1 3 0
-11182 -11186 -11739 -1 -2 3 0
-11183 -11185 -11739 -2 -1 3 0
-11183 -11186 -11739 -2 3 0
-11189 -11192 -11740 -2 1 0
-11189 -11193 -11740 -2 -3 1 0
-11190 -11192 -11740 -3 -2 1 0
-11190 -11193 -11740 -3 1 0
-11188 -11191 -11741 -1 2 0
-11188 -11193 -11741 -1 -3 2 0
-11190 -11191 -11741 -3 -1 2 0
-11190 -11193 -11741 -3 2 0
-11188 -11191 -11742 -1 3 0
-11188 -11192 -11742 -1 -2 3 0
-11189 -11191 -11742 -2 -1 3 0
-11189 -11192 -11742 -2 3 0
-11195 -11198 -11743 -2 1 0
-11195 -11199 -11743 -2 -3 1 0
-11196 -11198 -11743 -3 -2 1 0
-11196 -11199 -11743 -3 1 0
-11194 -11197 -11744 -1 2 0
-11194 -11199 -11744 -1 -3 2 0
-11196 -11197 -11744 -3 -1 2 0
-11196 -11199 -11744 -3 2 0
-11194 -11197 -11745 -1 3 0
-11194 -11198 -11745 -1 -2 3 0
-11195 -11197 -11745 -2 -1 3 0
-11195 -11198 -11745 -2 3 0
-11201 -11204 -11746 -2 1 0
-11201 -11205 -11746 -2 -3 1 0
-11202 -11204 -11746 -3 -2 1 0
-11202 -11205 -11746 -3 1 0
-11200 -11203 -11747 -1 2 0
-11200 -11205 -11747 -1 -3 2 0
-11202 -11203 -11747 -3 -1 2 0
-11202 -11205 -11747 -3 2 0
-11200 -11203 -11748 -1 3 0
-11200 -11204 -11748 -1 -2 3 0
-11201 -11203 -11748 -2 -1 3 0
-11201 -11204 -11748 -2 3 0
-11207 -11210 -11749 -2 1 0
-11207 -11211 -11749 -2 -3 1 0
-11208 -11210 -11749 -3 -2 1 0
-11208 -11211 -11749 -3 1 0
-11206 -11209 -11750 -1 2 0
-11206 -11211 -11750 -1 -3 2 0
-11208 -11209 -11750 -3 -1 2 0
-11208 -11211 -11750 -3 2 0
-11206 -11209 -11751 -1 3 0
-11206 -11210 -11751 -1 -2 3 0
-11207 -11209 -11751 -2 -1 3 0
-11207 -11210 -11751 -2 3 0
-11213 -11216 -11752 -2 1 0
-11213 -11217 -11752 -2 -3 1 0
-11214 -11216 -11752 -3 -2 1 0
-11214 -11217 -11752 -3 1 0
-11212 -11215 -11753 -1 2 0
-11212 -11217 -11753 -1 -3 2 0
-11214 -11215 -11753 -3 -1 2 0
-11214 -11217 -11753 -3 2 0
-11212 -11215 -11754 -1 3 0
-11212 -11216 -11754 -1 -2 3 0
-11213 -11215 -11754 -2 -1 3 0
-11213 -11216 -11754 -2 3 0
-11219 -11222 -11755 -2 1 0
-11219 -11223 -11755 -2 -3 1 0
-11220 -11222 -11755 -3 -2 1 0
-11220 -11223 -11755 -3 1 0
-11218 -11221 -11756 -1 2 0
-11218 -11223 -11756 -1 -3 2 0
-11220 -11221 -11756 -3 -1 2 0
-11220 -11223 -11756 -3 2 0
-11218 -11221 -11757 -1 3 0
-11218 -11222 -11757 -1 -2 3 0
-11219 -11221 -11757 -2 -1 3 0
-11219 -11222 -11757 -2 3 0
-11225 -11228 -11758 -2 1 0
-11225 -11229 -11758 -2 -3 1 0
-11226 -11228 -11758 -3 -2 1 0
-11226 -11229 -11758 -3 1 0
-11224 -11227 -11759 -1 2 0
-11224 -11229 -11759 -1 -3 2 0
-11226 -11227 -11759 -3 -1 2 0
-11226 -11229 -11759 -3 2 0
-11224 -11227 -11760 -1 3 0
-11224 -11228 -11760 -1 -2 3 0
-11225 -11227 -11760 -2 -1 3 0
-11225 -11228 -11760 -2 3 0
-11231 -11234 -11761 -2 1 0
-11231 -11235 -11761 -2 -3 1 0
-11232 -11234 -11761 -3 -2 1 0
-11232 -11235 -11761 -3 1 0
-11230 -11233 -11762 -1 2 0
-11230 -11235 -11762 -1 -3 2 0
-11232 -11233 -11762 -3 -1 2 0
-11232 -11235 -11762 -3 2 0
-11230 -11233 -11763 -1 3 0
-11230 -11234 -11763 -1 -2 3 0
-11231 -11233 -11763 -2 -1 3 0
-11231 -11234 -11763 -2 3 0
-11237 -11240 -11764 -2 1 0
-11237 -11241 -11764 -2 -3 1 0
-11238 -11240 -11764 -3 -2 1 0
-11238 -11241 -11764 -3 1 0
-11236 -11239 -11765 -1 2 0
-11236 -11241 -11765 -1 -3 2 0
-11238 -11239 -11765 -3 -1 2 0
-11238 -11241 -11765 -3 2 0
-11236 -11239 -11766 -1 3 0
-11236 -11240 -11766 -1 -2 3 0
-11237 -11239 -11766 -2 -1 3 0
-11237 -11240 -11766 -2 3 0
-11243 -11246 -11767 -2 1 0
-11243 -11247 -11767 -2 -3 1 0
-11244 -11246 -11767 -3 -2 1 0
-11244 -11247 -11767 -3 1 0
-11242 -11245 -11768 -1 2 0
-11242 -11247 -11768 -1 -3 2 0
-11244 -11245 -11768 -3 -1 2 0
-11244 -11247 -11768 -3 2 0
-11242 -11245 -11769 -1 3 0
-11242 -11246 -11769 -1 -2 3 0
-11243 -11245 -11769 -2 -1 3 0
-11243 -11246 -11769 -2 3 0
-11249 -11252 -11770 -2 1 0
-11249 -11253 -11770 -2 -3 1 0
-11250 -11252 -11770 -3 -2 1 0
-11250 -11253 -11770 -3 1 0
-11248 -11251 -11771 -1 2 0
-11248 -11253 -11771 -1 -3 2 0
-11250 -11251 -11771 -3 -1 2 0
-11250 -11253 -11771 -3 2 0
-11248 -11251 -11772 -1 3 0
-11248 -11252 -11772 -1 -2 3 0
-11249 -11251 -11772 -2 -1 3 0
-11249 -11252 -11772 -2 3 0
-11255 -11258 -11773 -2 1 0
-11255 -11259 -11773 -2 -3 1 0
-11256 -11258 -11773 -3 -2 1 0
-11256 -11259 -11773 -3 1 0
-11254 -11257 -11774 -1 2 0
-11254 -11259 -11774 -1 -3 2 0
-11256 -11257 -11774 -3 -1 2 0
-11256 -11259 -11774 -3 2 0
-11254 -11257 -11775 -1 3 0
-11254 -11258 -11775 -1 -2 3 0
-11255 -11257 -11775 -2 -1 3 0
-11255 -11258 -11775 -2 3 0
-11261 -11264 -11776 -2 1 0
-11261 -11265 -11776 -2 -3 1 0
-11262 -11264 -11776 -3 -2 1 0
-11262 -11265 -11776 -3 1 0
-11260 -11263 -11777 -1 2 0
-11260 -11265 -11777 -1 -3 2 0
-11262 -11263 -11777 -3 -1 2 0
-11262 -11265 -11777 -3 2 0
-11260 -11263 -11778 -1 3 0
-11260 -11264 -11778 -1 -2 3 0
-11261 -11263 -11778 -2 -1 3 0
-11261 -11264 -11778 -2 3 0
-11267 -11270 -11779 -2 1 0
-11267 -11271 -11779 -2 -3 1 0
-11268 -11270 -11779 -3 -2 1 0
-11268 -11271 -11779 -3 1 0
-11266 -11269 -11780 -1 2 0
-11266 -11271 -11780 -1 -3 2 0
-11268 -11269 -11780 -3 -1 2 0
-11268 -11271 -11780 -3 2 0
-11266 -11269 -11781 -1 3 0
-11266 -11270 -11781 -1 -2 3 0
-11267 -11269 -11781 -2 -1 3 0
-11267 -11270 -11781 -2 3 0
-11273 -11276 -11782 -2 1 0
-11273 -11277 -11782 -2 -3 1 0
-11274 -11276 -11782 -3 -2 1 0
-11274 -11277 -11782 -3 1 0
-11272 -11275 -11783 -1 2 0
-11272 -11277 -11783 -1 -3 2 0
-11274 -11275 -11783 -3 -1 2 0
-11274 -11277 -11783 -3 2 0
-11272 -11275 -11784 -1 3 0
-11272 -11276 -11784 -1 -2 3 0
-11273 -11275 -11784 -2 -1 3 0
-11273 -11276 -11784 -2 3 0
-11279 -11282 -11785 -2 1 0
-11279 -11283 -11785 -2 -3 1 0
-11280 -11282 -11785 -3 -2 1 0
-11280 -11283 -11785 -3 1 0
-11278 -11281 -11786 -1 2 0
-11278 -11283 -11786 -1 -3 2 0
-11280 -11281 -11786 -3 -1 2 0
-11280 -11283 -11786 -3 2 0
-11278 -11281 -11787 -1 3 0
-11278 -11282 -11787 -1 -2 3 0
-11279 -11281 -11787 -2 -1 3 0
-11279 -11282 -11787 -2 3 0
-11285 -11288 -11788 -2 1 0
-11285 -11289 -11788 -2 -3 1 0
-11286 -11288 -11788 -3 -2 1 0
-11286 -11289 -11788 -3 1 0
-11284 -11287 -11789 -1 2 0
-11284 -11289 -11789 -1 -3 2 0
-11286 -11287 -11789 -3 -1 2 0
-11286 -11289 -11789 -3 2 0
-11284 -11287 -11790 -1 3 0
-11284 -11288 -11790 -1 -2 3 0
-11285 -11287 -11790 -2 -1 3 0
-11285 -11288 -11790 -2 3 0
-11291 -11294 -11791 -2 1 0
-11291 -11295 -11791 -2 -3 1 0
-11292 -11294 -11791 -3 -2 1 0
-11292 -11295 -11791 -3 1 0
-11290 -11293 -11792 -1 2 0
-11290 -11295 -11792 -1 -3 2 0
-11292 -11293 -11792 -3 -1 2 0
-11292 -11295 -11792 -3 2 0
-11290 -11293 -11793 -1 3 0
-11290 -11294 -11793 -1 -2 3 0
-11291 -11293 -11793 -2 -1 3 0
-11291 -11294 -11793 -2 3 0
-11297 -11300 -11794 -2 1 0
-11297 -11301 -11794 -2 -3 1 0
-11298 -11300 -11794 -3 -2 1 0
-11298 -11301 -11794 -3 1 0
-11296 -11299 -11795 -1 2 0
-11296 -11301 -11795 -1 -3 2 0
-11298 -11299 -11795 -3 -1 2 0
-11298 -11301 -11795 -3 2 0
-11296 -11299 -11796 -1 3 0
-11296 -11300 -11796 -1 -2 3 0
-11297 -11299 -11796 -2 -1 3 0
-11297 -11300 -11796 -2 3 0
-11303 -11306 -11797 -2 1 0
-11303 -11307 -11797 -2 -3 1 0
-11304 -11306 -11797 -3 -2 1 0
-11304 -11307 -11797 -3 1 0
-11302 -11305 -11798 -1 2 0
-11302 -11307 -11798 -1 -3 2 0
-11304 -11305 -11798 -3 -1 2 0
-11304 -11307 -11798 -3 2 0
-11302 -11305 -11799 -1 3 0
-11302 -11306 -11799 -1 -2 3 0
-11303 -11305 -11799 -2 -1 3 0
-11303 -11306 -11799 -2 3 0
-11309 -11312 -11800 -2 1 0
-11309 -11313 -11800 -2 -3 1 0
-11310 -11312 -11800 -3 -2 1 0
-11310 -11313 -11800 -3 1 0
-11308 -11311 -11801 -1 2 0
-11308 -11313 -11801 -1 -3 2 0
-11310 -11311 -11801 -3 -1 2 0
-11310 -11313 -11801 -3 2 0
-11308 -11311 -11802 -1 3 0
-11308 -11312 -11802 -1 -2 3 0
-11309 -11311 -11802 -2 -1 3 0
-11309 -11312 -11802 -2 3 0
-11315 -11318 -11803 -2 1 0
-11315 -11319 -11803 -2 -3 1 0
-11316 -11318 -11803 -3 -2 1 0
-11316 -11319 -11803 -3 1 0
-11314 -11317 -11804 -1 2 0
-11314 -11319 -11804 -1 -3 2 0
-11316 -11317 -11804 -3 -1 2 0
-11316 -11319 -11804 -3 2 0
-11314 -11317 -11805 -1 3 0
-11314 -11318 -11805 -1 -2 3 0
-11315 -11317 -11805 -2 -1 3 0
-11315 -11318 -11805 -2 3 0
-11321 -11324 -11806 -2 1 0
-11321 -11325 -11806 -2 -3 1 0
-11322 -11324 -11806 -3 -2 1 0
-11322 -11325 -11806 -3 1 0
-11320 -11323 -11807 -1 2 0
-11320 -11325 -11807 -1 -3 2 0
-11322 -11323 -11807 -3 -1 2 0
-11322 -11325 -11807 -3 2 0
-11320 -11323 -11808 -1 3 0
-11320 -11324 -11808 -1 -2 3 0
-11321 -11323 -11808 -2 -1 3 0
-11321 -11324 -11808 -2 3 0
-11327 -11330 -11809 -2 1 0
-11327 -11331 -11809 -2 -3 1 0
-11328 -11330 -11809 -3 -2 1 0
-11328 -11331 -11809 -3 1 0
-11326 -11329 -11810 -1 2 0
-11326 -11331 -11810 -1 -3 2 0
-11328 -11329 -11810 -3 -1 2 0
-11328 -11331 -11810 -3 2 0
-11326 -11329 -11811 -1 3 0
-11326 -11330 -11811 -1 -2 3 0
-11327 -11329 -11811 -2 -1 3 0
-11327 -11330 -11811 -2 3 0
-11333 -11336 -11812 -2 1 0
-11333 -11337 -11812 -2 -3 1 0
-11334 -11336 -11812 -3 -2 1 0
-11334 -11337 -11812 -3 1 0
-11332 -11335 -11813 -1 2 0
-11332 -11337 -11813 -1 -3 2 0
-11334 -11335 -11813 -3 -1 2 0
-11334 -11337 -11813 -3 2 0
-11332 -11335 -11814 -1 3 0
-11332 -11336 -11814 -1 -2 3 0
-11333 -11335 -11814 -2 -1 3 0
-11333 -11336 -11814 -2 3 0
-11339 -11342 -11815 -2 1 0
-11339 -11343 -11815 -2 -3 1 0
-11340 -11342 -11815 -3 -2 1 0
-11340 -11343 -11815 -3 1 0
-11338 -11341 -11816 -1 2 0
-11338 -11343 -11816 -1 -3 2 0
-11340 -11341 -11816 -3 -1 2 0
-11340 -11343 -11816 -3 2 0
-11338 -11341 -11817 -1 3 0
-11338 -11342 -11817 -1 -2 3 0
-11339 -11341 -11817 -2 -1 3 0
-11339 -11342 -11817 -2 3 0
-11345 -11348 -11818 -2 1 0
-11345 -11349 -11818 -2 -3 1 0
-11346 -11348 -11818 -3 -2 1 0
-11346 -11349 -11818 -3 1 0
-11344 -11347 -11819 -1 2 0
-11344 -11349 -11819 -1 -3 2 0
-11346 -11347 -11819 -3 -1 2 0
-11346 -11349 -11819 -3 2 0
-11344 -11347 -11820 -1 3 0
-11344 -11348 -11820 -1 -2 3 0
-11345 -11347 -11820 -2 -1 3 0
-11345 -11348 -11820 -2 3 0
-11351 -11354 -11821 -2 1 0
-11351 -11355 -11821 -2 -3 1 0
-11352 -11354 -11821 -3 -2 1 0
-11352 -11355 -11821 -3 1 0
-11350 -11353 -11822 -1 2 0
-11350 -11355 -11822 -1 -3 2 0
-11352 -11353 -11822 -3 -1 2 0
-11352 -11355 -11822 -3 2 0
-11350 -11353 -11823 -1 3 0
-11350 -11354 -11823 -1 -2 3 0
-11351 -11353 -11823 -2 -1 3 0
-11351 -11354 -11823 -2 3 0
-11357 -11360 -11824 -2 1 0
-11357 -11361 -11824 -2 -3 1 0
-11358 -11360 -11824 -3 -2 1 0
-11358 -11361 -11824 -3 1 0
-11356 -11359 -11825 -1 2 0
-11356 -11361 -11825 -1 -3 2 0
-11358 -11359 -11825 -3 -1 2 0
-11358 -11361 -11825 -3 2 0
-11356 -11359 -11826 -1 3 0
-11356 -11360 -11826 -1 -2 3 0
-11357 -11359 -11826 -2 -1 3 0
-11357 -11360 -11826 -2 3 0
-11363 -11366 -11827 -2 1 0
-11363 -11367 -11827 -2 -3 1 0
-11364 -11366 -11827 -3 -2 1 0
-11364 -11367 -11827 -3 1 0
-11362 -11365 -11828 -1 2 0
-11362 -11367 -11828 -1 -3 2 0
-11364 -11365 -11828 -3 -1 2 0
-11364 -11367 -11828 -3 2 0
-11362 -11365 -11829 -1 3 0
-11362 -11366 -11829 -1 -2 3 0
-11363 -11365 -11829 -2 -1 3 0
-11363 -11366 -11829 -2 3 0
-11369 -11372 -11830 -2 1 0
-11369 -11373 -11830 -2 -3 1 0
-11370 -11372 -11830 -3 -2 1 0
-11370 -11373 -11830 -3 1 0
-11368 -11371 -11831 -1 2 0
-11368 -11373 -11831 -1 -3 2 0
-11370 -11371 -11831 -3 -1 2 0
-11370 -11373 -11831 -3 2 0
-11368 -11371 -11832 -1 3 0
-11368 -11372 -11832 -1 -2 3 0
-11369 -11371 -11832 -2 -1 3 0
-11369 -11372 -11832 -2 3 0
-11375 -11378 -11833 -2 1 0
-11375 -11379 -11833 -2 -3 1 0
-11376 -11378 -11833 -3 -2 1 0
-11376 -11379 -11833 -3 1 0
-11374 -11377 -11834 -1 2 0
-11374 -11379 -11834 -1 -3 2 0
-11376 -11377 -11834 -3 -1 2 0
-11376 -11379 -11834 -3 2 0
-11374 -11377 -11835 -1 3 0
-11374 -11378 -11835 -1 -2 3 0
-11375 -11377 -11835 -2 -1 3 0
-11375 -11378 -11835 -2 3 0
-11381 -11384 -11836 -2 1 0
-11381 -11385 -11836 -2 -3 1 0
-11382 -11384 -11836 -3 -2 1 0
-11382 -11385 -11836 -3 1 0
-11380 -11383 -11837 -1 2 0
-11380 -11385 -11837 -1 -3 2 0
-11382 -11383 -11837 -3 -1 2 0
-11382 -11385 -11837 -3 2 0
-11380 -11383 -11838 -1 3 0
-11380 -11384 -11838 -1 -2 3 0
-11381 -11383 -11838 -2 -1 3 0
-11381 -11384 -11838 -2 3 0
-11387 -11390 -11839 -2 1 0
-11387 -11391 -11839 -2 -3 1 0
-11388 -11390 -11839 -3 -2 1 0
-11388 -11391 -11839 -3 1 0
-11386 -11389 -11840 -1 2 0
-11386 -11391 -11840 -1 -3 2 0
-11388 -11389 -11840 -3 -1 2 0
-11388 -11391 -11840 -3 2 0
-11386 -11389 -11841 -1 3 0
-11386 -11390 -11841 -1 -2 3 0
-11387 -11389 -11841 -2 -1 3 0
-11387 -11390 -11841 -2 3 0
-11393 -11396 -11842 -2 1 0
-11393 -11397 -11842 -2 -3 1 0
-11394 -11396 -11842 -3 -2 1 0
-11394 -11397 -11842 -3 1 0
-11392 -11395 -11843 -1 2 0
-11392 -11397 -11843 -1 -3 2 0
-11394 -11395 -11843 -3 -1 2 0
-11394 -11397 -11843 -3 2 0
-11392 -11395 -11844 -1 3 0
-11392 -11396 -11844 -1 -2 3 0
-11393 -11395 -11844 -2 -1 3 0
-11393 -11396 -11844 -2 3 0
-11399 -11402 -11845 -2 1 0
-11399 -11403 -11845 -2 -3 1 0
-11400 -11402 -11845 -3 -2 1 0
-11400 -11403 -11845 -3 1 0
-11398 -11401 -11846 -1 2 0
-11398 -11403 -11846 -1 -3 2 0
-11400 -11401 -11846 -3 -1 2 0
-11400 -11403 -11846 -3 2 0
-11398 -11401 -11847 -1 3 0
-11398 -11402 -11847 -1 -2 3 0
-11399 -11401 -11847 -2 -1 3 0
-11399 -11402 -11847 -2 3 0
-11405 -11408 -11848 -2 1 0
-11405 -11409 -11848 -2 -3 1 0
-11406 -11408 -11848 -3 -2 1 0
-11406 -11409 -11848 -3 1 0
-11404 -11407 -11849 -1 2 0
-11404 -11409 -11849 -1 -3 2 0
-11406 -11407 -11849 -3 -1 2 0
-11406 -11409 -11849 -3 2 0
-11404 -11407 -11850 -1 3 0
-11404 -11408 -11850 -1 -2 3 0
-11405 -11407 -11850 -2 -1 3 0
-11405 -11408 -11850 -2 3 0
-11411 -11414 -11851 -2 1 0
-11411 -11415 -11851 -2 -3 1 0
-11412 -11414 -11851 -3 -2 1 0
-11412 -11415 -11851 -3 1 0
-11410 -11413 -11852 -1 2 0
-11410 -11415 -11852 -1 -3 2 0
-11412 -11413 -11852 -3 -1 2 0
-11412 -11415 -11852 -3 2 0
-11410 -11413 -11853 -1 3 0
-11410 -11414 -11853 -1 -2 3 0
-11411 -11413 -11853 -2 -1 3 0
-11411 -11414 -11853 -2 3 0
-11417 -11420 -11854 -2 1 0
-11417 -11421 -11854 -2 -3 1 0
-11418 -11420 -11854 -3 -2 1 0
-11418 -11421 -11854 -3 1 0
-11416 -11419 -11855 -1 2 0
-11416 -11421 -11855 -1 -3 2 0
-11418 -11419 -11855 -3 -1 2 0
-11418 -11421 -11855 -3 2 0
-11416 -11419 -11856 -1 3 0
-11416 -11420 -11856 -1 -2 3 0
-11417 -11419 -11856 -2 -1 3 0
-11417 -11420 -11856 -2 3 0
-11423 -11426 -11857 -2 1 0
-11423 -11427 -11857 -2 -3 1 0
-11424 -11426 -11857 -3 -2 1 0
-11424 -11427 -11857 -3 1 0
-11422 -11425 -11858 -1 2 0
-11422 -11427 -11858 -1 -3 2 0
-11424 -11425 -11858 -3 -1 2 0
-11424 -11427 -11858 -3 2 0
-11422 -11425 -11859 -1 3 0
-11422 -11426 -11859 -1 -2 3 0
-11423 -11425 -11859 -2 -1 3 0
-11423 -11426 -11859 -2 3 0
-11429 -11432 -11860 -2 1 0
-11429 -11433 -11860 -2 -3 1 0
-11430 -11432 -11860 -3 -2 1 0
-11430 -11433 -11860 -3 1 0
-11428 -11431 -11861 -1 2 0
-11428 -11433 -11861 -1 -3 2 0
-11430 -11431 -11861 -3 -1 2 0
-11430 -11433 -11861 -3 2 0
-11428 -11431 -11862 -1 3 0
-11428 -11432 -11862 -1 -2 3 0
-11429 -11431 -11862 -2 -1 3 0
-11429 -11432 -11862 -2 3 0
-11435 -11438 -11863 -2 1 0
-11435 -11439 -11863 -2 -3 1 0
-11436 -11438 -11863 -3 -2 1 0
-11436 -11439 -11863 -3 1 0
-11434 -11437 -11864 -1 2 0
-11434 -11439 -11864 -1 -3 2 0
-11436 -11437 -11864 -3 -1 2 0
-11436 -11439 -11864 -3 2 0
-11434 -11437 -11865 -1 3 0
-11434 -11438 -11865 -1 -2 3 0
-11435 -11437 -11865 -2 -1 3 0
-11435 -11438 -11865 -2 3 0
-11441 -11444 -11866 -2 1 0
-11441 -11445 -11866 -2 -3 1 0
-11442 -11444 -11866 -3 -2 1 0
-11442 -11445 -11866 -3 1 0
-11440 -11443 -11867 -1 2 0
-11440 -11445 -11867 -1 -3 2 0
-11442 -11443 -11867 -3 -1 2 0
-11442 -11445 -11867 -3 2 0
-11440 -11443 -11868 -1 3 0
-11440 -11444 -11868 -1 -2 3 0
-11441 -11443 -11868 -2 -1 3 0
-11441 -11444 -11868 -2 3 0
-11447 -11450 -11869 -2 1 0
-11447 -11451 -11869 -2 -3 1 0
-11448 -11450 -11869 -3 -2 1 0
-11448 -11451 -11869 -3 1 0
-11446 -11449 -11870 -1 2 0
-11446 -11451 -11870 -1 -3 2 0
-11448 -11449 -11870 -3 -1 2 0
-11448 -11451 -11870 -3 2 0
-11446 -11449 -11871 -1 3 0
-11446 -11450 -11871 -1 -2 3 0
-11447 -11449 -11871 -2 -1 3 0
-11447 -11450 -11871 -2 3 0
-11453 -11456 -11872 -2 1 0
-11453 -11457 -11872 -2 -3 1 0
-11454 -11456 -11872 -3 -2 1 0
-11454 -11457 -11872 -3 1 0
-11452 -11455 -11873 -1 2 0
-11452 -11457 -11873 -1 -3 2 0
-11454 -11455 -11873 -3 -1 2 0
-11454 -11457 -11873 -3 2 0
-11452 -11455 -11874 -1 3 0
-11452 -11456 -11874 -1 -2 3 0
-11453 -11455 -11874 -2 -1 3 0
-11453 -11456 -11874 -2 3 0
-11459 -11462 -11875 -2 1 0
-11459 -11463 -11875 -2 -3 1 0
-11460 -11462 -11875 -3 -2 1 0
-11460 -11463 -11875 -3 1 0
-11458 -11461 -11876 -1 2 0
-11458 -11463 -11876 -1 -3 2 0
-11460 -11461 -11876 -3 -1 2 0
-11460 -11463 -11876 -3 2 0
-11458 -11461 -11877 -1 3 0
-11458 -11462 -11877 -1 -2 3 0
-11459 -11461 -11877 -2 -1 3 0
-11459 -11462 -11877 -2 3 0
-11465 -11468 -11878 -2 1 0
-11465 -11469 -11878 -2 -3 1 0
-11466 -11468 -11878 -3 -2 1 0
-11466 -11469 -11878 -3 1 0
-11464 -11467 -11879 -1 2 0
-11464 -11469 -11879 -1 -3 2 0
-11466 -11467 -11879 -3 -1 2 0
-11466 -11469 -11879 -3 2 0
-11464 -11467 -11880 -1 3 0
-11464 -11468 -11880 -1 -2 3 0
-11465 -11467 -11880 -2 -1 3 0
-11465 -11468 -11880 -2 3 0
-11471 -11474 -11881 -2 1 0
-11471 -11475 -11881 -2 -3 1 0
-11472 -11474 -11881 -3 -2 1 0
-11472 -11475 -11881 -3 1 0
-11470 -11473 -11882 -1 2 0
-11470 -11475 -11882 -1 -3 2 0
-11472 -11473 -11882 -3 -1 2 0
-11472 -11475 -11882 -3 2 0
-11470 -11473 -11883 -1 3 0
-11470 -11474 -11883 -1 -2 3 0
-11471 -11473 -11883 -2 -1 3 0
-11471 -11474 -11883 -2 3 0
-11477 -11480 -11884 -2 1 0
-11477 -11481 -11884 -2 -3 1 0
-11478 -11480 -11884 -3 -2 1 0
-11478 -11481 -11884 -3 1 0
-11476 -11479 -11885 -1 2 0
-11476 -11481 -11885 -1 -3 2 0
-11478 -11479 -11885 -3 -1 2 0
-11478 -11481 -11885 -3 2 0
-11476 -11479 -11886 -1 3 0
-11476 -11480 -11886 -1 -2 3 0
-11477 -11479 -11886 -2 -1 3 0
-11477 -11480 -11886 -2 3 0
-11483 -11486 -11887 -2 1 0
-11483 -11487 -11887 -2 -3 1 0
-11484 -11486 -11887 -3 -2 1 0
-11484 -11487 -11887 -3 1 0
-11482 -11485 -11888 -1 2 0
-11482 -11487 -11888 -1 -3 2 0
-11484 -11485 -11888 -3 -1 2 0
-11484 -11487 -11888 -3 2 0
-11482 -11485 -11889 -1 3 0
-11482 -11486 -11889 -1 -2 3 0
-11483 -11485 -11889 -2 -1 3 0
-11483 -11486 -11889 -2 3 0
-11489 -11492 -11890 -2 1 0
-11489 -11493 -11890 -2 -3 1 0
-11490 -11492 -11890 -3 -2 1 0
-11490 -11493 -11890 -3 1 0
-11488 -11491 -11891 -1 2 0
-11488 -11493 -11891 -1 -3 2 0
-11490 -11491 -11891 -3 -1 2 0
-11490 -11493 -11891 -3 2 0
-11488 -11491 -11892 -1 3 0
-11488 -11492 -11892 -1 -2 3 0
-11489 -11491 -11892 -2 -1 3 0
-11489 -11492 -11892 -2 3 0
-11495 -11498 -11893 -2 1 0
-11495 -11499 -11893 -2 -3 1 0
-11496 -11498 -11893 -3 -2 1 0
-11496 -11499 -11893 -3 1 0
-11494 -11497 -11894 -1 2 0
-11494 -11499 -11894 -1 -3 2 0
-11496 -11497 -11894 -3 -1 2 0
-11496 -11499 -11894 -3 2 0
-11494 -11497 -11895 -1 3 0
-11494 -11498 -11895 -1 -2 3 0
-11495 -11497 -11895 -2 -1 3 0
-11495 -11498 -11895 -2 3 0
-11501 -11504 -11896 -2 1 0
-11501 -11505 -11896 -2 -3 1 0
-11502 -11504 -11896 -3 -2 1 0
-11502 -11505 -11896 -3 1 0
-11500 -11503 -11897 -1 2 0
-11500 -11505 -11897 -1 -3 2 0
-11502 -11503 -11897 -3 -1 2 0
-11502 -11505 -11897 -3 2 0
-11500 -11503 -11898 -1 3 0
-11500 -11504 -11898 -1 -2 3 0
-11501 -11503 -11898 -2 -1 3 0
-11501 -11504 -11898 -2 3 0
-11507 -11510 -11899 -2 1 0
-11507 -11511 -11899 -2 -3 1 0
-11508 -11510 -11899 -3 -2 1 0
-11508 -11511 -11899 -3 1 0
-11506 -11509 -11900 -1 2 0
-11506 -11511 -11900 -1 -3 2 0
-11508 -11509 -11900 -3 -1 2 0
-11508 -11511 -11900 -3 2 0
-11506 -11509 -11901 -1 3 0
-11506 -11510 -11901 -1 -2 3 0
-11507 -11509 -11901 -2 -1 3 0
-11507 -11510 -11901 -2 3 0
-11513 -11516 -11902 -2 1 0
-11513 -11517 -11902 -2 -3 1 0
-11514 -11516 -11902 -3 -2 1 0
-11514 -11517 -11902 -3 1 0
-11512 -11515 -11903 -1 2 0
-11512 -11517 -11903 -1 -3 2 0
-11514 -11515 -11903 -3 -1 2 0
-11514 -11517 -11903 -3 2 0
-11512 -11515 -11904 -1 3 0
-11512 -11516 -11904 -1 -2 3 0
-11513 -11515 -11904 -2 -1 3 0
-11513 -11516 -11904 -2 3 0
-11519 -11522 -11905 -2 1 0
-11519 -11523 -11905 -2 -3 1 0
-11520 -11522 -11905 -3 -2 1 0
-11520 -11523 -11905 -3 1 0
-11518 -11521 -11906 -1 2 0
-11518 -11523 -11906 -1 -3 2 0
-11520 -11521 -11906 -3 -1 2 0
-11520 -11523 -11906 -3 2 0
-11518 -11521 -11907 -1 3 0
-11518 -11522 -11907 -1 -2 3 0
-11519 -11521 -11907 -2 -1 3 0
-11519 -11522 -11907 -2 3 0
-11525 -11528 -11908 -2 1 0
-11525 -11529 -11908 -2 -3 1 0
-11526 -11528 -11908 -3 -2 1 0
-11526 -11529 -11908 -3 1 0
-11524 -11527 -11909 -1 2 0
-11524 -11529 -11909 -1 -3 2 0
-11526 -11527 -11909 -3 -1 2 0
-11526 -11529 -11909 -3 2 0
-11524 -11527 -11910 -1 3 0
-11524 -11528 -11910 -1 -2 3 0
-11525 -11527 -11910 -2 -1 3 0
-11525 -11528 -11910 -2 3 0
-11531 -11534 -11911 -2 1 0
-11531 -11535 -11911 -2 -3 1 0
-11532 -11534 -11911 -3 -2 1 0
-11532 -11535 -11911 -3 1 0
-11530 -11533 -11912 -1 2 0
-11530 -11535 -11912 -1 -3 2 0
-11532 -11533 -11912 -3 -1 2 0
-11532 -11535 -11912 -3 2 0
-11530 -11533 -11913 -1 3 0
-11530 -11534 -11913 -1 -2 3 0
-11531 -11533 -11913 -2 -1 3 0
-11531 -11534 -11913 -2 3 0
-11537 -11540 -11914 -2 1 0
-11537 -11541 -11914 -2 -3 1 0
-11538 -11540 -11914 -3 -2 1 0
-11538 -11541 -11914 -3 1 0
-11536 -11539 -11915 -1 2 0
-11536 -11541 -11915 -1 -3 2 0
-11538 -11539 -11915 -3 -1 2 0
-11538 -11541 -11915 -3 2 0
-11536 -11539 -11916 -1 3 0
-11536 -11540 -11916 -1 -2 3 0
-11537 -11539 -11916 -2 -1 3 0
-11537 -11540 -11916 -2 3 0
-11543 -11546 -11917 -2 1 0
-11543 -11547 -11917 -2 -3 1 0
-11544 -11546 -11917 -3 -2 1 0
-11544 -11547 -11917 -3 1 0
-11542 -11545 -11918 -1 2 0
-11542 -11547 -11918 -1 -3 2 0
-11544 -11545 -11918 -3 -1 2 0
-11544 -11547 -11918 -3 2 0
-11542 -11545 -11919 -1 3 0
-11542 -11546 -11919 -1 -2 3 0
-11543 -11545 -11919 -2 -1 3 0
-11543 -11546 -11919 -2 3 0
-11549 -11552 -11920 -2 1 0
-11549 -11553 -11920 -2 -3 1 0
-11550 -11552 -11920 -3 -2 1 0
-11550 -11553 -11920 -3 1 0
-11548 -11551 -11921 -1 2 0
-11548 -11553 -11921 -1 -3 2 0
-11550 -11551 -11921 -3 -1 2 0
-11550 -11553 -11921 -3 2 0
-11548 -11551 -11922 -1 3 0
-11548 -11552 -11922 -1 -2 3 0
-11549 -11551 -11922 -2 -1 3 0
-11549 -11552 -11922 -2 3 0
-11555 -11558 -11923 -2 1 0
-11555 -11559 -11923 -2 -3 1 0
-11556 -11558 -11923 -3 -2 1 0
-11556 -11559 -11923 -3 1 0
-11554 -11557 -11924 -1 2 0
-11554 -11559 -11924 -1 -3 2 0
-11556 -11557 -11924 -3 -1 2 0
-11556 -11559 -11924 -3 2 0
-11554 -11557 -11925 -1 3 0
-11554 -11558 -11925 -1 -2 3 0
-11555 -11557 -11925 -2 -1 3 0
-11555 -11558 -11925 -2 3 0
-11561 -11564 -11926 -2 1 0
-11561 -11565 -11926 -2 -3 1 0
-11562 -11564 -11926 -3 -2 1 0
-11562 -11565 -11926 -3 1 0
-11560 -11563 -11927 -1 2 0
-11560 -11565 -11927 -1 -3 2 0
-11562 -11563 -11927 -3 -1 2 0
-11562 -11565 -11927 -3 2 0
-11560 -11563 -11928 -1 3 0
-11560 -11564 -11928 -1 -2 3 0
-11561 -11563 -11928 -2 -1 3 0
-11561 -11564 -11928 -2 3 0
-11567 -11570 -11929 -2 1 0
-11567 -11571 -11929 -2 -3 1 0
-11568 -11570 -11929 -3 -2 1 0
-11568 -11571 -11929 -3 1 0
-11566 -11569 -11930 -1 2 0
-11566 -11571 -11930 -1 -3 2 0
-11568 -11569 -11930 -3 -1 2 0
-11568 -11571 -11930 -3 2 0
-11566 -11569 -11931 -1 3 0
-11566 -11570 -11931 -1 -2 3 0
-11567 -11569 -11931 -2 -1 3 0
-11567 -11570 -11931 -2 3 0
-11573 -11576 -11932 -2 1 0
-11573 -11577 -11932 -2 -3 1 0
-11574 -11576 -11932 -3 -2 1 0
-11574 -11577 -11932 -3 1 0
-11572 -11575 -11933 -1 2 0
-11572 -11577 -11933 -1 -3 2 0
-11574 -11575 -11933 -3 -1 2 0
-11574 -11577 -11933 -3 2 0
-11572 -11575 -11934 -1 3 0
-11572 -11576 -11934 -1 -2 3 0
-11573 -11575 -11934 -2 -1 3 0
-11573 -11576 -11934 -2 3 0
-11579 -11582 -11935 -2 1 0
-11579 -11583 -11935 -2 -3 1 0
-11580 -11582 -11935 -3 -2 1 0
-11580 -11583 -11935 -3 1 0
-11578 -11581 -11936 -1 2 0
-11578 -11583 -11936 -1 -3 2 0
-11580 -11581 -11936 -3 -1 2 0
-11580 -11583 -11936 -3 2 0
-11578 -11581 -11937 -1 3 0
-11578 -11582 -11937 -1 -2 3 0
-11579 -11581 -11937 -2 -1 3 0
-11579 -11582 -11937 -2 3 0
-11585 -11588 -11938 -2 1 0
-11585 -11589 -11938 -2 -3 1 0
-11586 -11588 -11938 -3 -2 1 0
-11586 -11589 -11938 -3 1 0
-11584 -11587 -11939 -1 2 0
-11584 -11589 -11939 -1 -3 2 0
-11586 -11587 -11939 -3 -1 2 0
-11586 -11589 -11939 -3 2 0
-11584 -11587 -11940 -1 3 0
-11584 -11588 -11940 -1 -2 3 0
-11585 -11587 -11940 -2 -1 3 0
-11585 -11588 -11940 -2 3 0
-11591 -11594 -11941 -2 1 0
-11591 -11595 -11941 -2 -3 1 0
-11592 -11594 -11941 -3 -2 1 0
-11592 -11595 -11941 -3 1 0
-11590 -11593 -11942 -1 2 0
-11590 -11595 -11942 -1 -3 2 0
-11592 -11593 -11942 -3 -1 2 0
-11592 -11595 -11942 -3 2 0
-11590 -11593 -11943 -1 3 0
-11590 -11594 -11943 -1 -2 3 0
-11591 -11593 -11943 -2 -1 3 0
-11591 -11594 -11943 -2 3 0
-11597 -11600 -11944 -2 1 0
-11597 -11601 -11944 -2 -3 1 0
-11598 -11600 -11944 -3 -2 1 0
-11598 -11601 -11944 -3 1 0
-11596 -11599 -11945 -1 2 0
-11596 -11601 -11945 -1 -3 2 0
-11598 -11599 -11945 -3 -1 2 0
-11598 -11601 -11945 -3 2 0
-11596 -11599 -11946 -1 3 0
-11596 -11600 -11946 -1 -2 3 0
-11597 -11599 -11946 -2 -1 3 0
-11597 -11600 -11946 -2 3 0
-11603 -11606 -11947 -2 1 0
-11603 -11607 -11947 -2 -3 1 0
-11604 -11606 -11947 -3 -2 1 0
-11604 -11607 -11947 -3 1 0
-11602 -11605 -11948 -1 2 0
-11602 -11607 -11948 -1 -3 2 0
-11604 -11605 -11948 -3 -1 2 0
-11604 -11607 -11948 -3 2 0
-11602 -11605 -11949 -1 3 0
-11602 -11606 -11949 -1 -2 3 0
-11603 -11605 -11949 -2 -1 3 0
-11603 -11606 -11949 -2 3 0
-11609 -11612 -11950 -2 1 0
-11609 -11613 -11950 -2 -3 1 0
-11610 -11612 -11950 -3 -2 1 0
-11610 -11613 -11950 -3 1 0
-11608 -11611 -11951 -1 2 0
-11608 -11613 -11951 -1 -3 2 0
-11610 -11611 -11951 -3 -1 2 0
-11610 -11613 -11951 -3 2 0
-11608 -11611 -11952 -1 3 0
-11608 -11612 -11952 -1 -2 3 0
-11609 -11611 -11952 -2 -1 3 0
-11609 -11612 -11952 -2 3 0
-11615 -11618 -11953 -2 1 0
-11615 -11619 -11953 -2 -3 1 0
-11616 -11618 -11953 -3 -2 1 0
-11616 -11619 -11953 -3 1 0
-11614 -11617 -11954 -1 2 0
-11614 -11619 -11954 -1 -3 2 0
-11616 -11617 -11954 -3 -1 2 0
-11616 -11619 -11954 -3 2 0
-11614 -11617 -11955 -1 3 0
-11614 -11618 -11955 -1 -2 3 0
-11615 -11617 -11955 -2 -1 3 0
-11615 -11618 -11955 -2 3 0
-11621 -11624 -11956 -2 1 0
-11621 -11625 -11956 -2 -3 1 0
-11622 -11624 -11956 -3 -2 1 0
-11622 -11625 -11956 -3 1 0
-11620 -11623 -11957 -1 2 0
-11620 -11625 -11957 -1 -3 2 0
-11622 -11623 -11957 -3 -1 2 0
-11622 -11625 -11957 -3 2 0
-11620 -11623 -11958 -1 3 0
-11620 -11624 -11958 -1 -2 3 0
-11621 -11623 -11958 -2 -1 3 0
-11621 -11624 -11958 -2 3 0
-11627 -11630 -11959 -2 1 0
-11627 -11631 -11959 -2 -3 1 0
-11628 -11630 -11959 -3 -2 1 0
-11628 -11631 -11959 -3 1 0
-11626 -11629 -11960 -1 2 0
-11626 -11631 -11960 -1 -3 2 0
-11628 -11629 -11960 -3 -1 2 0
-11628 -11631 -11960 -3 2 0
-11626 -11629 -11961 -1 3 0
-11626 -11630 -11961 -1 -2 3 0
-11627 -11629 -11961 -2 -1 3 0
-11627 -11630 -11961 -2 3 0
-11633 -11636 -11962 -2 1 0
-11633 -11637 -11962 -2 -3 1 0
-11634 -11636 -11962 -3 -2 1 0
-11634 -11637 -11962 -3 1 0
-11632 -11635 -11963 -1 2 0
-11632 -11637 -11963 -1 -3 2 0
-11634 -11635 -11963 -3 -1 2 0
-11634 -11637 -11963 -3 2 0
-11632 -11635 -11964 -1 3 0
-11632 -11636 -11964 -1 -2 3 0
-11633 -11635 -11964 -2 -1 3 0
-11633 -11636 -11964 -2 3 0
-11639 -11642 -11965 -2 1 0
-11639 -11643 -11965 -2 -3 1 0
-11640 -11642 -11965 -3 -2 1 0
-11640 -11643 -11965 -3 1 0
-11638 -11641 -11966 -1 2 0
-11638 -11643 -11966 -1 -3 2 0
-11640 -11641 -11966 -3 -1 2 0
-11640 -11643 -11966 -3 2 0
-11638 -11641 -11967 -1 3 0
-11638 -11642 -11967 -1 -2 3 0
-11639 -11641 -11967 -2 -1 3 0
-11639 -11642 -11967 -2 3 0
-11645 -11648 -11968 -2 1 0
-11645 -11649 -11968 -2 -3 1 0
-11646 -11648 -11968 -3 -2 1 0
-11646 -11649 -11968 -3 1 0
-11644 -11647 -11969 -1 2 0
-11644 -11649 -11969 -1 -3 2 0
-11646 -11647 -11969 -3 -1 2 0
-11646 -11649 -11969 -3 2 0
-11644 -11647 -11970 -1 3 0
-11644 -11648 -11970 -1 -2 3 0
-11645 -11647 -11970 -2 -1 3 0
-11645 -11648 -11970 -2 3 0
-11651 -11654 -11971 -2 1 0
-11651 -11655 -11971 -2 -3 1 0
-11652 -11654 -11971 -3 -2 1 0
-11652 -11655 -11971 -3 1 0
-11650 -11653 -11972 -1 2 0
-11650 -11655 -11972 -1 -3 2 0
-11652 -11653 -11972 -3 -1 2 0
-11652 -11655 -11972 -3 2 0
-11650 -11653 -11973 -1 3 0
-11650 -11654 -11973 -1 -2 3 0
-11651 -11653 -11973 -2 -1 3 0
-11651 -11654 -11973 -2 3 0
-11657 -11660 -11974 -2 1 0
-11657 -11661 -11974 -2 -3 1 0
-11658 -11660 -11974 -3 -2 1 0
-11658 -11661 -11974 -3 1 0
-11656 -11659 -11975 -1 2 0
-11656 -11661 -11975 -1 -3 2 0
-11658 -11659 -11975 -3 -1 2 0
-11658 -11661 -11975 -3 2 0
-11656 -11659 -11976 -1 3 0
-11656 -11660 -11976 -1 -2 3 0
-11657 -11659 -11976 -2 -1 3 0
-11657 -11660 -11976 -2 3 0
-11663 -11666 -11977 -2 1 0
-11663 -11667 -11977 -2 -3 1 0
-11664 -11666 -11977 -3 -2 1 0
-11664 -11667 -11977 -3 1 0
-11662 -11665 -11978 -1 2 0
-11662 -11667 -11978 -1 -3 2 0
-11664 -11665 -11978 -3 -1 2 0
-11664 -11667 -11978 -3 2 0
-11662 -11665 -11979 -1 3 0
-11662 -11666 -11979 -1 -2 3 0
-11663 -11665 -11979 -2 -1 3 0
-11663 -11666 -11979 -2 3 0
-11669 -11672 -11980 -2 1 0
-11669 -11673 -11980 -2 -3 1 0
-11670 -11672 -11980 -3 -2 1 0
-11670 -11673 -11980 -3 1 0
-11668 -11671 -11981 -1 2 0
-11668 -11673 -11981 -1 -3 2 0
-11670 -11671 -11981 -3 -1 2 0
-11670 -11673 -11981 -3 2 0
-11668 -11671 -11982 -1 3 0
-11668 -11672 -11982 -1 -2 3 0
-11669 -11671 -11982 -2 -1 3 0
-11669 -11672 -11982 -2 3 0
-11675 -11678 -11983 -2 1 0
-11675 -11679 -11983 -2 -3 1 0
-11676 -11678 -11983 -3 -2 1 0
-11676 -11679 -11983 -3 1 0
-11674 -11677 -11984 -1 2 0
-11674 -11679 -11984 -1 -3 2 0
-11676 -11677 -11984 -3 -1 2 0
-11676 -11679 -11984 -3 2 0
-11674 -11677 -11985 -1 3 0
-11674 -11678 -11985 -1 -2 3 0
-11675 -11677 -11985 -2 -1 3 0
-11675 -11678 -11985 -2 3 0
-11681 -11684 -11986 -2 1 0
-11681 -11685 -11986 -2 -3 1 0
-11682 -11684 -11986 -3 -2 1 0
-11682 -11685 -11986 -3 1 0
-11680 -11683 -11987 -1 2 0
-11680 -11685 -11987 -1 -3 2 0
-11682 -11683 -11987 -3 -1 2 0
-11682 -11685 -11987 -3 2 0
-11680 -11683 -11988 -1 3 0
-11680 -11684 -11988 -1 -2 3 0
-11681 -11683 -11988 -2 -1 3 0
-11681 -11684 -11988 -2 3 0
-11687 -11690 -11989 -2 1 0
-11687 -11691 -11989 -2 -3 1 0
-11688 -11690 -11989 -3 -2 1 0
-11688 -11691 -11989 -3 1 0
-11686 -11689 -11990 -1 2 0
-11686 -11691 -11990 -1 -3 2 0
-11688 -11689 -11990 -3 -1 2 0
-11688 -11691 -11990 -3 2 0
-11686 -11689 -11991 -1 3 0
-11686 -11690 -11991 -1 -2 3 0
-11687 -11689 -11991 -2 -1 3 0
-11687 -11690 -11991 -2 3 0
-11693 -11696 -11992 -2 1 0
-11693 -11697 -11992 -2 -3 1 0
-11694 -11696 -11992 -3 -2 1 0
-11694 -11697 -11992 -3 1 0
-11692 -11695 -11993 -1 2 0
-11692 -11697 -11993 -1 -3 2 0
-11694 -11695 -11993 -3 -1 2 0
-11694 -11697 -11993 -3 2 0
-11692 -11695 -11994 -1 3 0
-11692 -11696 -11994 -1 -2 3 0
-11693 -11695 -11994 -2 -1 3 0
-11693 -11696 -11994 -2 3 0
-11699 -11702 -11995 -2 1 0
-11699 -11703 -11995 -2 -3 1 0
-11700 -11702 -11995 -3 -2 1 0
-11700 -11703 -11995 -3 1 0
-11698 -11701 -11996 -1 2 0
-11698 -11703 -11996 -1 -3 2 0
-11700 -11701 -11996 -3 -1 2 0
-11700 -11703 -11996 -3 2 0
-11698 -11701 -11997 -1 3 0
-11698 -11702 -11997 -1 -2 3 0
-11699 -11701 -11997 -2 -1 3 0
-11699 -11702 -11997 -2 3 0
-11705 -11708 -11998 -2 1 0
-11705 -11709 -11998 -2 -3 1 0
-11706 -11708 -11998 -3 -2 1 0
-11706 -11709 -11998 -3 1 0
-11704 -11707 -11999 -1 2 0
-11704 -11709 -11999 -1 -3 2 0
-11706 -11707 -11999 -3 -1 2 0
-11706 -11709 -11999 -3 2 0
-11704 -11707 -12000 -1 3 0
-11704 -11708 -12000 -1 -2 3 0
-11705 -11707 -12000 -2 -1 3 0
-11705 -11708 -12000 -2 3 0
-11711 -11714 -12001 -2 1 0
-11711 -11715 -12001 -2 -3 1 0
-11712 -11714 -12001 -3 -2 1 0
-11712 -11715 -12001 -3 1 0
-11710 -11713 -12002 -1 2 0
-11710 -11715 -12002 -1 -3 2 0
-11712 -11713 -12002 -3 -1 2 0
-11712 -11715 -12002 -3 2 0
-11710 -11713 -12003 -1 3 0
-11710 -11714 -12003 -1 -2 3 0
-11711 -11713 -12003 -2 -1 3 0
-11711 -11714 -12003 -2 3 0
-11717 -11720 -12004 -2 1 0
-11717 -11721 -12004 -2 -3 1 0
-11718 -11720 -12004 -3 -2 1 0
-11718 -11721 -12004 -3 1 0
-11716 -11719 -12005 -1 2 0
-11716 -11721 -12005 -1 -3 2 0
-11718 -11719 -12005 -3 -1 2 0
-11718 -11721 -12005 -3 2 0
-11716 -11719 -12006 -1 3 0
-11716 -11720 -12006 -1 -2 3 0
-11717 -11719 -12006 -2 -1 3 0
-11717 -11720 -12006 -2 3 0
-11723 -11726 -12007 -2 1 0
-11723 -11727 -12007 -2 -3 1 0
-11724 -11726 -12007 -3 -2 1 0
-11724 -11727 -12007 -3 1 0
-11722 -11725 -12008 -1 2 0
-11722 -11727 -12008 -1 -3 2 0
-11724 -11725 -12008 -3 -1 2 0
-11724 -11727 -12008 -3 2 0
-11722 -11725 -12009 -1 3 0
-11722 -11726 -12009 -1 -2 3 0
-11723 -11725 -12009 -2 -1 3 0
-11723 -11726 -12009 -2 3 0
-11729 -11732 -12010 -2 1 0
-11729 -11733 -12010 -2 -3 1 0
-11730 -11732 -12010 -3 -2 1 0
-11730 -11733 -12010 -3 1 0
-11728 -11731 -12011 -1 2 0
-11728 -11733 -12011 -1 -3 2 0
-11730 -11731 -12011 -3 -1 2 0
-11730 -11733 -12011 -3 2 0
-11728 -11731 -12012 -1 3 0
-11728 -11732 -12012 -1 -2 3 0
-11729 -11731 -12012 -2 -1 3 0
-11729 -11732 -12012 -2 3 0
-11735 -11738 -12013 -2 1 0
-11735 -11739 -12013 -2 -3 1 0
-11736 -11738 -12013 -3 -2 1 0
-11736 -11739 -12013 -3 1 0
-11734 -11737 -12014 -1 2 0
-11734 -11739 -12014 -1 -3 2 0
-11736 -11737 -12014 -3 -1 2 0
-11736 -11739 -12014 -3 2 0
-11734 -11737 -12015 -1 3 0
-11734 -11738 -12015 -1 -2 3 0
-11735 -11737 -12015 -2 -1 3 0
-11735 -11738 -12015 -2 3 0
-11741 -11744 -12016 -2 1 0
-11741 -11745 -12016 -2 -3 1 0
-11742 -11744 -12016 -3 -2 1 0
-11742 -11745 -12016 -3 1 0
-11740 -11743 -12017 -1 2 0
-11740 -11745 -12017 -1 -3 2 0
-11742 -11743 -12017 -3 -1 2 0
-11742 -11745 -12017 -3 2 0
-11740 -11743 -12018 -1 3 0
-11740 -11744 -12018 -1 -2 3 0
-11741 -11743 -12018 -2 -1 3 0
-11741 -11744 -12018 -2 3 0
-11747 -11750 -12019 -2 1 0
-11747 -11751 -12019 -2 -3 1 0
-11748 -11750 -12019 -3 -2 1 0
-11748 -11751 -12019 -3 1 0
-11746 -11749 -12020 -1 2 0
-11746 -11751 -12020 -1 -3 2 0
-11748 -11749 -12020 -3 -1 2 0
-11748 -11751 -12020 -3 2 0
-11746 -11749 -12021 -1 3 0
-11746 -11750 -12021 -1 -2 3 0
-11747 -11749 -12021 -2 -1 3 0
-11747 -11750 -12021 -2 3 0
-11753 -11756 -12022 -2 1 0
-11753 -11757 -12022 -2 -3 1 0
-11754 -11756 -12022 -3 -2 1 0
-11754 -11757 -12022 -3 1 0
-11752 -11755 -12023 -1 2 0
-11752 -11757 -12023 -1 -3 2 0
-11754 -11755 -12023 -3 -1 2 0
-11754 -11757 -12023 -3 2 0
-11752 -11755 -12024 -1 3 0
-11752 -11756 -12024 -1 -2 3 0
-11753 -11755 -12024 -2 -1 3 0
-11753 -11756 -12024 -2 3 0
-11759 -11762 -12025 -2 1 0
-11759 -11763 -12025 -2 -3 1 0
-11760 -11762 -12025 -3 -2 1 0
-11760 -11763 -12025 -3 1 0
-11758 -11761 -12026 -1 2 0
-11758 -11763 -12026 -1 -3 2 0
-11760 -11761 -12026 -3 -1 2 0
-11760 -11763 -12026 -3 2 0
-11758 -11761 -12027 -1 3 0
-11758 -11762 -12027 -1 -2 3 0
-11759 -11761 -12027 -2 -1 3 0
-11759 -11762 -12027 -2 3 0
-11765 -11768 -12028 -2 1 0
-11765 -11769 -12028 -2 -3 1 0
-11766 -11768 -12028 -3 -2 1 0
-11766 -11769 -12028 -3 1 0
-11764 -11767 -12029 -1 2 0
-11764 -11769 -12029 -1 -3 2 0
-11766 -11767 -12029 -3 -1 2 0
-11766 -11769 -12029 -3 2 0
-11764 -11767 -12030 -1 3 0
-11764 -11768 -12030 -1 -2 3 0
-11765 -11767 -12030 -2 -1 3 0
-11765 -11768 -12030 -2 3 0
-11771 -11774 -12031 -2 1 0
-11771 -11775 -12031 -2 -3 1 0
-11772 -11774 -12031 -3 -2 1 0
-11772 -11775 -12031 -3 1 0
-11770 -11773 -12032 -1 2 0
-11770 -11775 -12032 -1 -3 2 0
-11772 -11773 -12032 -3 -1 2 0
-11772 -11775 -12032 -3 2 0
-11770 -11773 -12033 -1 3 0
-11770 -11774 -12033 -1 -2 3 0
-11771 -11773 -12033 -2 -1 3 0
-11771 -11774 -12033 -2 3 0
-11777 -11780 -12034 -2 1 0
-11777 -11781 -12034 -2 -3 1 0
-11778 -11780 -12034 -3 -2 1 0
-11778 -11781 -12034 -3 1 0
-11776 -11779 -12035 -1 2 0
-11776 -11781 -12035 -1 -3 2 0
-11778 -11779 -12035 -3 -1 2 0
-11778 -11781 -12035 -3 2 0
-11776 -11779 -12036 -1 3 0
-11776 -11780 -12036 -1 -2 3 0
-11777 -11779 -12036 -2 -1 3 0
-11777 -11780 -12036 -2 3 0
-11783 -11786 -12037 -2 1 0
-11783 -11787 -12037 -2 -3 1 0
-11784 -11786 -12037 -3 -2 1 0
-11784 -11787 -12037 -3 1 0
-11782 -11785 -12038 -1 2 0
-11782 -11787 -12038 -1 -3 2 0
-11784 -11785 -12038 -3 -1 2 0
-11784 -11787 -12038 -3 2 0
-11782 -11785 -12039 -1 3 0
-11782 -11786 -12039 -1 -2 3 0
-11783 -11785 -12039 -2 -1 3 0
-11783 -11786 -12039 -2 3 0
-11789 -11792 -12040 -2 1 0
-11789 -11793 -12040 -2 -3 1 0
-11790 -11792 -12040 -3 -2 1 0
-11790 -11793 -12040 -3 1 0
-11788 -11791 -12041 -1 2 0
-11788 -11793 -12041 -1 -3 2 0
-11790 -11791 -12041 -3 -1 2 0
-11790 -11793 -12041 -3 2 0
-11788 -11791 -12042 -1 3 0
-11788 -11792 -12042 -1 -2 3 0
-11789 -11791 -12042 -2 -1 3 0
-11789 -11792 -12042 -2 3 0
-11795 -11798 -12043 -2 1 0
-11795 -11799 -12043 -2 -3 1 0
-11796 -11798 -12043 -3 -2 1 0
-11796 -11799 -12043 -3 1 0
-11794 -11797 -12044 -1 2 0
-11794 -11799 -12044 -1 -3 2 0
-11796 -11797 -12044 -3 -1 2 0
-11796 -11799 -12044 -3 2 0
-11794 -11797 -12045 -1 3 0
-11794 -11798 -12045 -1 -2 3 0
-11795 -11797 -12045 -2 -1 3 0
-11795 -11798 -12045 -2 3 0
-11801 -11804 -12046 -2 1 0
-11801 -11805 -12046 -2 -3 1 0
-11802 -11804 -12046 -3 -2 1 0
-11802 -11805 -12046 -3 1 0
-11800 -11803 -12047 -1 2 0
-11800 -11805 -12047 -1 -3 2 0
-11802 -11803 -12047 -3 -1 2 0
-11802 -11805 -12047 -3 2 0
-11800 -11803 -12048 -1 3 0
-11800 -11804 -12048 -1 -2 3 0
-11801 -11803 -12048 -2 -1 3 0
-11801 -11804 -12048 -2 3 0
-11807 -11810 -12049 -2 1 0
-11807 -11811 -12049 -2 -3 1 0
-11808 -11810 -12049 -3 -2 1 0
-11808 -11811 -12049 -3 1 0
-11806 -11809 -12050 -1 2 0
-11806 -11811 -12050 -1 -3 2 0
-11808 -11809 -12050 -3 -1 2 0
-11808 -11811 -12050 -3 2 0
-11806 -11809 -12051 -1 3 0
-11806 -11810 -12051 -1 -2 3 0
-11807 -11809 -12051 -2 -1 3 0
-11807 -11810 -12051 -2 3 0
-11813 -11816 -12052 -2 1 0
-11813 -11817 -12052 -2 -3 1 0
-11814 -11816 -12052 -3 -2 1 0
-11814 -11817 -12052 -3 1 0
-11812 -11815 -12053 -1 2 0
-11812 -11817 -12053 -1 -3 2 0
-11814 -11815 -12053 -3 -1 2 0
-11814 -11817 -12053 -3 2 0
-11812 -11815 -12054 -1 3 0
-11812 -11816 -12054 -1 -2 3 0
-11813 -11815 -12054 -2 -1 3 0
-11813 -11816 -12054 -2 3 0
-11819 -11822 -12055 -2 1 0
-11819 -11823 -12055 -2 -3 1 0
-11820 -11822 -12055 -3 -2 1 0
-11820 -11823 -12055 -3 1 0
-11818 -11821 -12056 -1 2 0
-11818 -11823 -12056 -1 -3 2 0
-11820 -11821 -12056 -3 -1 2 0
-11820 -11823 -12056 -3 2 0
-11818 -11821 -12057 -1 3 0
-11818 -11822 -12057 -1 -2 3 0
-11819 -11821 -12057 -2 -1 3 0
-11819 -11822 -12057 -2 3 0
-11825 -11828 -12058 -2 1 0
-11825 -11829 -12058 -2 -3 1 0
-11826 -11828 -12058 -3 -2 1 0
-11826 -11829 -12058 -3 1 0
-11824 -11827 -12059 -1 2 0
-11824 -11829 -12059 -1 -3 2 0
-11826 -11827 -12059 -3 -1 2 0
-11826 -11829 -12059 -3 2 0
-11824 -11827 -12060 -1 3 0
-11824 -11828 -12060 -1 -2 3 0
-11825 -11827 -12060 -2 -1 3 0
-11825 -11828 -12060 -2 3 0
-11831 -11834 -12061 -2 1 0
-11831 -11835 -12061 -2 -3 1 0
-11832 -11834 -12061 -3 -2 1 0
-11832 -11835 -12061 -3 1 0
-11830 -11833 -12062 -1 2 0
-11830 -11835 -12062 -1 -3 2 0
-11832 -11833 -12062 -3 -1 2 0
-11832 -11835 -12062 -3 2 0
-11830 -11833 -12063 -1 3 0
-11830 -11834 -12063 -1 -2 3 0
-11831 -11833 -12063 -2 -1 3 0
-11831 -11834 -12063 -2 3 0
-11837 -11840 -12064 -2 1 0
-11837 -11841 -12064 -2 -3 1 0
-11838 -11840 -12064 -3 -2 1 0
-11838 -11841 -12064 -3 1 0
-11836 -11839 -12065 -1 2 0
-11836 -11841 -12065 -1 -3 2 0
-11838 -11839 -12065 -3 -1 2 0
-11838 -11841 -12065 -3 2 0
-11836 -11839 -12066 -1 3 0
-11836 -11840 -12066 -1 -2 3 0
-11837 -11839 -12066 -2 -1 3 0
-11837 -11840 -12066 -2 3 0
-11843 -11846 -12067 -2 1 0
-11843 -11847 -12067 -2 -3 1 0
-11844 -11846 -12067 -3 -2 1 0
-11844 -11847 -12067 -3 1 0
-11842 -11845 -12068 -1 2 0
-11842 -11847 -12068 -1 -3 2 0
-11844 -11845 -12068 -3 -1 2 0
-11844 -11847 -12068 -3 2 0
-11842 -11845 -12069 -1 3 0
-11842 -11846 -12069 -1 -2 3 0
-11843 -11845 -12069 -2 -1 3 0
-11843 -11846 -12069 -2 3 0
-11849 -11852 -12070 -2 1 0
-11849 -11853 -12070 -2 -3 1 0
-11850 -11852 -12070 -3 -2 1 0
-11850 -11853 -12070 -3 1 0
-11848 -11851 -12071 -1 2 0
-11848 -11853 -12071 -1 -3 2 0
-11850 -11851 -12071 -3 -1 2 0
-11850 -11853 -12071 -3 2 0
-11848 -11851 -12072 -1 3 0
-11848 -11852 -12072 -1 -2 3 0
-11849 -11851 -12072 -2 -1 3 0
-11849 -11852 -12072 -2 3 0
-11855 -11858 -12073 -2 1 0
-11855 -11859 -12073 -2 -3 1 0
-11856 -11858 -12073 -3 -2 1 0
-11856 -11859 -12073 -3 1 0
-11854 -11857 -12074 -1 2 0
-11854 -11859 -12074 -1 -3 2 0
-11856 -11857 -12074 -3 -1 2 0
-11856 -11859 -12074 -3 2 0
-11854 -11857 -12075 -1 3 0
-11854 -11858 -12075 -1 -2 3 0
-11855 -11857 -12075 -2 -1 3 0
-11855 -11858 -12075 -2 3 0
-11861 -11864 -12076 -2 1 0
-11861 -11865 -12076 -2 -3 1 0
-11862 -11864 -12076 -3 -2 1 0
-11862 -11865 -12076 -3 1 0
-11860 -11863 -12077 -1 2 0
-11860 -11865 -12077 -1 -3 2 0
-11862 -11863 -12077 -3 -1 2 0
-11862 -11865 -12077 -3 2 0
-11860 -11863 -12078 -1 3 0
-11860 -11864 -12078 -1 -2 3 0
-11861 -11863 -12078 -2 -1 3 0
-11861 -11864 -12078 -2 3 0
-11867 -11870 -12079 -2 1 0
-11867 -11871 -12079 -2 -3 1 0
-11868 -11870 -12079 -3 -2 1 0
-11868 -11871 -12079 -3 1 0
-11866 -11869 -12080 -1 2 0
-11866 -11871 -12080 -1 -3 2 0
-11868 -11869 -12080 -3 -1 2 0
-11868 -11871 -12080 -3 2 0
-11866 -11869 -12081 -1 3 0
-11866 -11870 -12081 -1 -2 3 0
-11867 -11869 -12081 -2 -1 3 0
-11867 -11870 -12081 -2 3 0
-11873 -11876 -12082 -2 1 0
-11873 -11877 -12082 -2 -3 1 0
-11874 -11876 -12082 -3 -2 1 0
-11874 -11877 -12082 -3 1 0
-11872 -11875 -12083 -1 2 0
-11872 -11877 -12083 -1 -3 2 0
-11874 -11875 -12083 -3 -1 2 0
-11874 -11877 -12083 -3 2 0
-11872 -11875 -12084 -1 3 0
-11872 -11876 -12084 -1 -2 3 0
-11873 -11875 -12084 -2 -1 3 0
-11873 -11876 -12084 -2 3 0
-11879 -11882 -12085 -2 1 0
-11879 -11883 -12085 -2 -3 1 0
-11880 -11882 -12085 -3 -2 1 0
-11880 -11883 -12085 -3 1 0
-11878 -11881 -12086 -1 2 0
-11878 -11883 -12086 -1 -3 2 0
-11880 -11881 -12086 -3 -1 2 0
-11880 -11883 -12086 -3 2 0
-11878 -11881 -12087 -1 3 0
-11878 -11882 -12087 -1 -2 3 0
-11879 -11881 -12087 -2 -1 3 0
-11879 -11882 -12087 -2 3 0
-11885 -11888 -12088 -2 1 0
-11885 -11889 -12088 -2 -3 1 0
-11886 -11888 -12088 -3 -2 1 0
-11886 -11889 -12088 -3 1 0
-11884 -11887 -12089 -1 2 0
-11884 -11889 -12089 -1 -3 2 0
-11886 -11887 -12089 -3 -1 2 0
-11886 -11889 -12089 -3 2 0
-11884 -11887 -12090 -1 3 0
-11884 -11888 -12090 -1 -2 3 0
-11885 -11887 -12090 -2 -1 3 0
-11885 -11888 -12090 -2 3 0
-11891 -11894 -12091 -2 1 0
-11891 -11895 -12091 -2 -3 1 0
-11892 -11894 -12091 -3 -2 1 0
-11892 -11895 -12091 -3 1 0
-11890 -11893 -12092 -1 2 0
-11890 -11895 -12092 -1 -3 2 0
-11892 -11893 -12092 -3 -1 2 0
-11892 -11895 -12092 -3 2 0
-11890 -11893 -12093 -1 3 0
-11890 -11894 -12093 -1 -2 3 0
-11891 -11893 -12093 -2 -1 3 0
-11891 -11894 -12093 -2 3 0
-11897 -11900 -12094 -2 1 0
-11897 -11901 -12094 -2 -3 1 0
-11898 -11900 -12094 -3 -2 1 0
-11898 -11901 -12094 -3 1 0
-11896 -11899 -12095 -1 2 0
-11896 -11901 -12095 -1 -3 2 0
-11898 -11899 -12095 -3 -1 2 0
-11898 -11901 -12095 -3 2 0
-11896 -11899 -12096 -1 3 0
-11896 -11900 -12096 -1 -2 3 0
-11897 -11899 -12096 -2 -1 3 0
-11897 -11900 -12096 -2 3 0
-11903 -11906 -12097 -2 1 0
-11903 -11907 -12097 -2 -3 1 0
-11904 -11906 -12097 -3 -2 1 0
-11904 -11907 -12097 -3 1 0
-11902 -11905 -12098 -1 2 0
-11902 -11907 -12098 -1 -3 2 0
-11904 -11905 -12098 -3 -1 2 0
-11904 -11907 -12098 -3 2 0
-11902 -11905 -12099 -1 3 0
-11902 -11906 -12099 -1 -2 3 0
-11903 -11905 -12099 -2 -1 3 0
-11903 -11906 -12099 -2 3 0
-11909 -11912 -12100 -2 1 0
-11909 -11913 -12100 -2 -3 1 0
-11910 -11912 -12100 -3 -2 1 0
-11910 -11913 -12100 -3 1 0
-11908 -11911 -12101 -1 2 0
-11908 -11913 -12101 -1 -3 2 0
-11910 -11911 -12101 -3 -1 2 0
-11910 -11913 -12101 -3 2 0
-11908 -11911 -12102 -1 3 0
-11908 -11912 -12102 -1 -2 3 0
-11909 -11911 -12102 -2 -1 3 0
-11909 -11912 -12102 -2 3 0
-11915 -11918 -12103 -2 1 0
-11915 -11919 -12103 -2 -3 1 0
-11916 -11918 -12103 -3 -2 1 0
-11916 -11919 -12103 -3 1 0
-11914 -11917 -12104 -1 2 0
-11914 -11919 -12104 -1 -3 2 0
-11916 -11917 -12104 -3 -1 2 0
-11916 -11919 -12104 -3 2 0
-11914 -11917 -12105 -1 3 0
-11914 -11918 -12105 -1 -2 3 0
-11915 -11917 -12105 -2 -1 3 0
-11915 -11918 -12105 -2 3 0
-11921 -11924 -12106 -2 1 0
-11921 -11925 -12106 -2 -3 1 0
-11922 -11924 -12106 -3 -2 1 0
-11922 -11925 -12106 -3 1 0
-11920 -11923 -12107 -1 2 0
-11920 -11925 -12107 -1 -3 2 0
-11922 -11923 -12107 -3 -1 2 0
-11922 -11925 -12107 -3 2 0
-11920 -11923 -12108 -1 3 0
-11920 -11924 -12108 -1 -2 3 0
-11921 -11923 -12108 -2 -1 3 0
-11921 -11924 -12108 -2 3 0
-11927 -11930 -12109 -2 1 0
-11927 -11931 -12109 -2 -3 1 0
-11928 -11930 -12109 -3 -2 1 0
-11928 -11931 -12109 -3 1 0
-11926 -11929 -12110 -1 2 0
-11926 -11931 -12110 -1 -3 2 0
-11928 -11929 -12110 -3 -1 2 0
-11928 -11931 -12110 -3 2 0
-11926 -11929 -12111 -1 3 0
-11926 -11930 -12111 -1 -2 3 0
-11927 -11929 -12111 -2 -1 3 0
-11927 -11930 -12111 -2 3 0
-11933 -11936 -12112 -2 1 0
-11933 -11937 -12112 -2 -3 1 0
-11934 -11936 -12112 -3 -2 1 0
-11934 -11937 -12112 -3 1 0
-11932 -11935 -12113 -1 2 0
-11932 -11937 -12113 -1 -3 2 0
-11934 -11935 -12113 -3 -1 2 0
-11934 -11937 -12113 -3 2 0
-11932 -11935 -12114 -1 3 0
-11932 -11936 -12114 -1 -2 3 0
-11933 -11935 -12114 -2 -1 3 0
-11933 -11936 -12114 -2 3 0
-11939 -11942 -12115 -2 1 0
-11939 -11943 -12115 -2 -3 1 0
-11940 -11942 -12115 -3 -2 1 0
-11940 -11943 -12115 -3 1 0
-11938 -11941 -12116 -1 2 0
-11938 -11943 -12116 -1 -3 2 0
-11940 -11941 -12116 -3 -1 2 0
-11940 -11943 -12116 -3 2 0
-11938 -11941 -12117 -1 3 0
-11938 -11942 -12117 -1 -2 3 0
-11939 -11941 -12117 -2 -1 3 0
-11939 -11942 -12117 -2 3 0
-11945 -11948 -12118 -2 1 0
-11945 -11949 -12118 -2 -3 1 0
-11946 -11948 -12118 -3 -2 1 0
-11946 -11949 -12118 -3 1 0
-11944 -11947 -12119 -1 2 0
-11944 -11949 -12119 -1 -3 2 0
-11946 -11947 -12119 -3 -1 2 0
-11946 -11949 -12119 -3 2 0
-11944 -11947 -12120 -1 3 0
-11944 -11948 -12120 -1 -2 3 0
-11945 -11947 -12120 -2 -1 3 0
-11945 -11948 -12120 -2 3 0
-11951 -11954 -12121 -2 1 0
-11951 -11955 -12121 -2 -3 1 0
-11952 -11954 -12121 -3 -2 1 0
-11952 -11955 -12121 -3 1 0
-11950 -11953 -12122 -1 2 0
-11950 -11955 -12122 -1 -3 2 0
-11952 -11953 -12122 -3 -1 2 0
-11952 -11955 -12122 -3 2 0
-11950 -11953 -12123 -1 3 0
-11950 -11954 -12123 -1 -2 3 0
-11951 -11953 -12123 -2 -1 3 0
-11951 -11954 -12123 -2 3 0
-11957 -11960 -12124 -2 1 0
-11957 -11961 -12124 -2 -3 1 0
-11958 -11960 -12124 -3 -2 1 0
-11958 -11961 -12124 -3 1 0
-11956 -11959 -12125 -1 2 0
-11956 -11961 -12125 -1 -3 2 0
-11958 -11959 -12125 -3 -1 2 0
-11958 -11961 -12125 -3 2 0
-11956 -11959 -12126 -1 3 0
-11956 -11960 -12126 -1 -2 3 0
-11957 -11959 -12126 -2 -1 3 0
-11957 -11960 -12126 -2 3 0
-11963 -11966 -12127 -2 1 0
-11963 -11967 -12127 -2 -3 1 0
-11964 -11966 -12127 -3 -2 1 0
-11964 -11967 -12127 -3 1 0
-11962 -11965 -12128 -1 2 0
-11962 -11967 -12128 -1 -3 2 0
-11964 -11965 -12128 -3 -1 2 0
-11964 -11967 -12128 -3 2 0
-11962 -11965 -12129 -1 3 0
-11962 -11966 -12129 -1 -2 3 0
-11963 -11965 -12129 -2 -1 3 0
-11963 -11966 -12129 -2 3 0
-11969 -11972 -12130 -2 1 0
-11969 -11973 -12130 -2 -3 1 0
-11970 -11972 -12130 -3 -2 1 0
-11970 -11973 -12130 -3 1 0
-11968 -11971 -12131 -1 2 0
-11968 -11973 -12131 -1 -3 2 0
-11970 -11971 -12131 -3 -1 2 0
-11970 -11973 -12131 -3 2 0
-11968 -11971 -12132 -1 3 0
-11968 -11972 -12132 -1 -2 3 0
-11969 -11971 -12132 -2 -1 3 0
-11969 -11972 -12132 -2 3 0
-11975 -11978 -12133 -2 1 0
-11975 -11979 -12133 -2 -3 1 0
-11976 -11978 -12133 -3 -2 1 0
-11976 -11979 -12133 -3 1 0
-11974 -11977 -12134 -1 2 0
-11974 -11979 -12134 -1 -3 2 0
-11976 -11977 -12134 -3 -1 2 0
-11976 -11979 -12134 -3 2 0
-11974 -11977 -12135 -1 3 0
-11974 -11978 -12135 -1 -2 3 0
-11975 -11977 -12135 -2 -1 3 0
-11975 -11978 -12135 -2 3 0
-11981 -11984 -12136 -2 1 0
-11981 -11985 -12136 -2 -3 1 0
-11982 -11984 -12136 -3 -2 1 0
-11982 -11985 -12136 -3 1 0
-11980 -11983 -12137 -1 2 0
-11980 -11985 -12137 -1 -3 2 0
-11982 -11983 -12137 -3 -1 2 0
-11982 -11985 -12137 -3 2 0
-11980 -11983 -12138 -1 3 0
-11980 -11984 -12138 -1 -2 3 0
-11981 -11983 -12138 -2 -1 3 0
-11981 -11984 -12138 -2 3 0
-11987 -11990 -12139 -2 1 0
-11987 -11991 -12139 -2 -3 1 0
-11988 -11990 -12139 -3 -2 1 0
-11988 -11991 -12139 -3 1 0
-11986 -11989 -12140 -1 2 0
-11986 -11991 -12140 -1 -3 2 0
-11988 -11989 -12140 -3 -1 2 0
-11988 -11991 -12140 -3 2 0
-11986 -11989 -12141 -1 3 0
-11986 -11990 -12141 -1 -2 3 0
-11987 -11989 -12141 -2 -1 3 0
-11987 -11990 -12141 -2 3 0
-11993 -11996 -12142 -2 1 0
-11993 -11997 -12142 -2 -3 1 0
-11994 -11996 -12142 -3 -2 1 0
-11994 -11997 -12142 -3 1 0
-11992 -11995 -12143 -1 2 0
-11992 -11997 -12143 -1 -3 2 0
-11994 -11995 -12143 -3 -1 2 0
-11994 -11997 -12143 -3 2 0
-11992 -11995 -12144 -1 3 0
-11992 -11996 -12144 -1 -2 3 0
-11993 -11995 -12144 -2 -1 3 0
-11993 -11996 -12144 -2 3 0
-11999 -12002 -12145 -2 1 0
-11999 -12003 -12145 -2 -3 1 0
-12000 -12002 -12145 -3 -2 1 0
-12000 -12003 -12145 -3 1 0
-11998 -12001 -12146 -1 2 0
-11998 -12003 -12146 -1 -3 2 0
-12000 -12001 -12146 -3 -1 2 0
-12000 -12003 -12146 -3 2 0
-11998 -12001 -12147 -1 3 0
-11998 -12002 -12147 -1 -2 3 0
-11999 -12001 -12147 -2 -1 3 0
-11999 -12002 -12147 -2 3 0
-12005 -12008 -12148 -2 1 0
-12005 -12009 -12148 -2 -3 1 0
-12006 -12008 -12148 -3 -2 1 0
-12006 -12009 -12148 -3 1 0
-12004 -12007 -12149 -1 2 0
-12004 -12009 -12149 -1 -3 2 0
-12006 -12007 -12149 -3 -1 2 0
-12006 -12009 -12149 -3 2 0
-12004 -12007 -12150 -1 3 0
-12004 -12008 -12150 -1 -2 3 0
-12005 -12007 -12150 -2 -1 3 0
-12005 -12008 -12150 -2 3 0
-12011 -12014 -12151 -2 1 0
-12011 -12015 -12151 -2 -3 1 0
-12012 -12014 -12151 -3 -2 1 0
-12012 -12015 -12151 -3 1 0
-12010 -12013 -12152 -1 2 0
-12010 -12015 -12152 -1 -3 2 0
-12012 -12013 -12152 -3 -1 2 0
-12012 -12015 -12152 -3 2 0
-12010 -12013 -12153 -1 3 0
-12010 -12014 -12153 -1 -2 3 0
-12011 -12013 -12153 -2 -1 3 0
-12011 -12014 -12153 -2 3 0
-12017 -12020 -12154 -2 1 0
-12017 -12021 -12154 -2 -3 1 0
-12018 -12020 -12154 -3 -2 1 0
-12018 -12021 -12154 -3 1 0
-12016 -12019 -12155 -1 2 0
-12016 -12021 -12155 -1 -3 2 0
-12018 -12019 -12155 -3 -1 2 0
-12018 -12021 -12155 -3 2 0
-12016 -12019 -12156 -1 3 0
-12016 -12020 -12156 -1 -2 3 0
-12017 -12019 -12156 -2 -1 3 0
-12017 -12020 -12156 -2 3 0
-12023 -12026 -12157 -2 1 0
-12023 -12027 -12157 -2 -3 1 0
-12024 -12026 -12157 -3 -2 1 0
-12024 -12027 -12157 -3 1 0
-12022 -12025 -12158 -1 2 0
-12022 -12027 -12158 -1 -3 2 0
-12024 -12025 -12158 -3 -1 2 0
-12024 -12027 -12158 -3 2 0
-12022 -12025 -12159 -1 3 0
-12022 -12026 -12159 -1 -2 3 0
-12023 -12025 -12159 -2 -1 3 0
-12023 -12026 -12159 -2 3 0
-12029 -12032 -12160 -2 1 0
-12029 -12033 -12160 -2 -3 1 0
-12030 -12032 -12160 -3 -2 1 0
-12030 -12033 -12160 -3 1 0
-12028 -12031 -12161 -1 2 0
-12028 -12033 -12161 -1 -3 2 0
-12030 -12031 -12161 -3 -1 2 0
-12030 -12033 -12161 -3 2 0
-12028 -12031 -12162 -1 3 0
-12028 -12032 -12162 -1 -2 3 0
-12029 -12031 -12162 -2 -1 3 0
-12029 -12032 -12162 -2 3 0
-12035 -12038 -12163 -2 1 0
-12035 -12039 -12163 -2 -3 1 0
-12036 -12038 -12163 -3 -2 1 0
-12036 -12039 -12163 -3 1 0
-12034 -12037 -12164 -1 2 0
-12034 -12039 -12164 -1 -3 2 0
-12036 -12037 -12164 -3 -1 2 0
-12036 -12039 -12164 -3 2 0
-12034 -12037 -12165 -1 3 0
-12034 -12038 -12165 -1 -2 3 0
-12035 -12037 -12165 -2 -1 3 0
-12035 -12038 -12165 -2 3 0
-12041 -12044 -12166 -2 1 0
-12041 -12045 -12166 -2 -3 1 0
-12042 -12044 -12166 -3 -2 1 0
-12042 -12045 -12166 -3 1 0
-12040 -12043 -12167 -1 2 0
-12040 -12045 -12167 -1 -3 2 0
-12042 -12043 -12167 -3 -1 2 0
-12042 -12045 -12167 -3 2 0
-12040 -12043 -12168 -1 3 0
-12040 -12044 -12168 -1 -2 3 0
-12041 -12043 -12168 -2 -1 3 0
-12041 -12044 -12168 -2 3 0
-12047 -12050 -12169 -2 1 0
-12047 -12051 -12169 -2 -3 1 0
-12048 -12050 -12169 -3 -2 1 0
-12048 -12051 -12169 -3 1 0
-12046 -12049 -12170 -1 2 0
-12046 -12051 -12170 -1 -3 2 0
-12048 -12049 -12170 -3 -1 2 0
-12048 -12051 -12170 -3 2 0
-12046 -12049 -12171 -1 3 0
-12046 -12050 -12171 -1 -2 3 0
-12047 -12049 -12171 -2 -1 3 0
-12047 -12050 -12171 -2 3 0
-12053 -12056 -12172 -2 1 0
-12053 -12057 -12172 -2 -3 1 0
-12054 -12056 -12172 -3 -2 1 0
-12054 -12057 -12172 -3 1 0
-12052 -12055 -12173 -1 2 0
-12052 -12057 -12173 -1 -3 2 0
-12054 -12055 -12173 -3 -1 2 0
-12054 -12057 -12173 -3 2 0
-12052 -12055 -12174 -1 3 0
-12052 -12056 -12174 -1 -2 3 0
-12053 -12055 -12174 -2 -1 3 0
-12053 -12056 -12174 -2 3 0
-12059 -12062 -12175 -2 1 0
-12059 -12063 -12175 -2 -3 1 0
-12060 -12062 -12175 -3 -2 1 0
-12060 -12063 -12175 -3 1 0
-12058 -12061 -12176 -1 2 0
-12058 -12063 -12176 -1 -3 2 0
-12060 -12061 -12176 -3 -1 2 0
-12060 -12063 -12176 -3 2 0
-12058 -12061 -12177 -1 3 0
-12058 -12062 -12177 -1 -2 3 0
-12059 -12061 -12177 -2 -1 3 0
-12059 -12062 -12177 -2 3 0
-12065 -12068 -12178 -2 1 0
-12065 -12069 -12178 -2 -3 1 0
-12066 -12068 -12178 -3 -2 1 0
-12066 -12069 -12178 -3 1 0
-12064 -12067 -12179 -1 2 0
-12064 -12069 -12179 -1 -3 2 0
-12066 -12067 -12179 -3 -1 2 0
-12066 -12069 -12179 -3 2 0
-12064 -12067 -12180 -1 3 0
-12064 -12068 -12180 -1 -2 3 0
-12065 -12067 -12180 -2 -1 3 0
-12065 -12068 -12180 -2 3 0
-12071 -12074 -12181 -2 1 0
-12071 -12075 -12181 -2 -3 1 0
-12072 -12074 -12181 -3 -2 1 0
-12072 -12075 -12181 -3 1 0
-12070 -12073 -12182 -1 2 0
-12070 -12075 -12182 -1 -3 2 0
-12072 -12073 -12182 -3 -1 2 0
-12072 -12075 -12182 -3 2 0
-12070 -12073 -12183 -1 3 0
-12070 -12074 -12183 -1 -2 3 0
-12071 -12073 -12183 -2 -1 3 0
-12071 -12074 -12183 -2 3 0
-12077 -12080 -12184 -2 1 0
-12077 -12081 -12184 -2 -3 1 0
-12078 -12080 -12184 -3 -2 1 0
-12078 -12081 -12184 -3 1 0
-12076 -12079 -12185 -1 2 0
-12076 -12081 -12185 -1 -3 2 0
-12078 -12079 -12185 -3 -1 2 0
-12078 -12081 -12185 -3 2 0
-12076 -12079 -12186 -1 3 0
-12076 -12080 -12186 -1 -2 3 0
-12077 -12079 -12186 -2 -1 3 0
-12077 -12080 -12186 -2 3 0
-12083 -12086 -12187 -2 1 0
-12083 -12087 -12187 -2 -3 1 0
-12084 -12086 -12187 -3 -2 1 0
-12084 -12087 -12187 -3 1 0
-12082 -12085 -12188 -1 2 0
-12082 -12087 -12188 -1 -3 2 0
-12084 -12085 -12188 -3 -1 2 0
-12084 -12087 -12188 -3 2 0
-12082 -12085 -12189 -1 3 0
-12082 -12086 -12189 -1 -2 3 0
-12083 -12085 -12189 -2 -1 3 0
-12083 -12086 -12189 -2 3 0
-12089 -12092 -12190 -2 1 0
-12089 -12093 -12190 -2 -3 1 0
-12090 -12092 -12190 -3 -2 1 0
-12090 -12093 -12190 -3 1 0
-12088 -12091 -12191 -1 2 0
-12088 -12093 -12191 -1 -3 2 0
-12090 -12091 -12191 -3 -1 2 0
-12090 -12093 -12191 -3 2 0
-12088 -12091 -12192 -1 3 0
-12088 -12092 -12192 -1 -2 3 0
-12089 -12091 -12192 -2 -1 3 0
-12089 -12092 -12192 -2 3 0
-12095 -12098 -12193 -2 1 0
-12095 -12099 -12193 -2 -3 1 0
-12096 -12098 -12193 -3 -2 1 0
-12096 -12099 -12193 -3 1 0
-12094 -12097 -12194 -1 2 0
-12094 -12099 -12194 -1 -3 2 0
-12096 -12097 -12194 -3 -1 2 0
-12096 -12099 -12194 -3 2 0
-12094 -12097 -12195 -1 3 0
-12094 -12098 -12195 -1 -2 3 0
-12095 -12097 -12195 -2 -1 3 0
-12095 -12098 -12195 -2 3 0
-12101 -12104 -12196 -2 1 0
-12101 -12105 -12196 -2 -3 1 0
-12102 -12104 -12196 -3 -2 1 0
-12102 -12105 -12196 -3 1 0
-12100 -12103 -12197 -1 2 0
-12100 -12105 -12197 -1 -3 2 0
-12102 -12103 -12197 -3 -1 2 0
-12102 -12105 -12197 -3 2 0
-12100 -12103 -12198 -1 3 0
-12100 -12104 -12198 -1 -2 3 0
-12101 -12103 -12198 -2 -1 3 0
-12101 -12104 -12198 -2 3 0
-12107 -12110 -12199 -2 1 0
-12107 -12111 -12199 -2 -3 1 0
-12108 -12110 -12199 -3 -2 1 0
-12108 -12111 -12199 -3 1 0
-12106 -12109 -12200 -1 2 0
-12106 -12111 -12200 -1 -3 2 0
-12108 -12109 -12200 -3 -1 2 0
-12108 -12111 -12200 -3 2 0
-12106 -12109 -12201 -1 3 0
-12106 -12110 -12201 -1 -2 3 0
-12107 -12109 -12201 -2 -1 3 0
-12107 -12110 -12201 -2 3 0
-12113 -12116 -12202 -2 1 0
-12113 -12117 -12202 -2 -3 1 0
-12114 -12116 -12202 -3 -2 1 0
-12114 -12117 -12202 -3 1 0
-12112 -12115 -12203 -1 2 0
-12112 -12117 -12203 -1 -3 2 0
-12114 -12115 -12203 -3 -1 2 0
-12114 -12117 -12203 -3 2 0
-12112 -12115 -12204 -1 3 0
-12112 -12116 -12204 -1 -2 3 0
-12113 -12115 -12204 -2 -1 3 0
-12113 -12116 -12204 -2 3 0
-12119 -12122 -12205 -2 1 0
-12119 -12123 -12205 -2 -3 1 0
-12120 -12122 -12205 -3 -2 1 0
-12120 -12123 -12205 -3 1 0
-12118 -12121 -12206 -1 2 0
-12118 -12123 -12206 -1 -3 2 0
-12120 -12121 -12206 -3 -1 2 0
-12120 -12123 -12206 -3 2 0
-12118 -12121 -12207 -1 3 0
-12118 -12122 -12207 -1 -2 3 0
-12119 -12121 -12207 -2 -1 3 0
-12119 -12122 -12207 -2 3 0
-12125 -12128 -12208 -2 1 0
-12125 -12129 -12208 -2 -3 1 0
-12126 -12128 -12208 -3 -2 1 0
-12126 -12129 -12208 -3 1 0
-12124 -12127 -12209 -1 2 0
-12124 -12129 -12209 -1 -3 2 0
-12126 -12127 -12209 -3 -1 2 0
-12126 -12129 -12209 -3 2 0
-12124 -12127 -12210 -1 3 0
-12124 -12128 -12210 -1 -2 3 0
-12125 -12127 -12210 -2 -1 3 0
-12125 -12128 -12210 -2 3 0
-12131 -12134 -12211 -2 1 0
-12131 -12135 -12211 -2 -3 1 0
-12132 -12134 -12211 -3 -2 1 0
-12132 -12135 -12211 -3 1 0
-12130 -12133 -12212 -1 2 0
-12130 -12135 -12212 -1 -3 2 0
-12132 -12133 -12212 -3 -1 2 0
-12132 -12135 -12212 -3 2 0
-12130 -12133 -12213 -1 3 0
-12130 -12134 -12213 -1 -2 3 0
-12131 -12133 -12213 -2 -1 3 0
-12131 -12134 -12213 -2 3 0
-12137 -12140 -12214 -2 1 0
-12137 -12141 -12214 -2 -3 1 0
-12138 -12140 -12214 -3 -2 1 0
-12138 -12141 -12214 -3 1 0
-12136 -12139 -12215 -1 2 0
-12136 -12141 -12215 -1 -3 2 0
-12138 -12139 -12215 -3 -1 2 0
-12138 -12141 -12215 -3 2 0
-12136 -12139 -12216 -1 3 0
-12136 -12140 -12216 -1 -2 3 0
-12137 -12139 -12216 -2 -1 3 0
-12137 -12140 -12216 -2 3 0
-12143 -12146 -12217 -2 1 0
-12143 -12147 -12217 -2 -3 1 0
-12144 -12146 -12217 -3 -2 1 0
-12144 -12147 -12217 -3 1 0
-12142 -12145 -12218 -1 2 0
-12142 -12147 -12218 -1 -3 2 0
-12144 -12145 -12218 -3 -1 2 0
-12144 -12147 -12218 -3 2 0
-12142 -12145 -12219 -1 3 0
-12142 -12146 -12219 -1 -2 3 0
-12143 -12145 -12219 -2 -1 3 0
-12143 -12146 -12219 -2 3 0
-12149 -12152 -12220 -2 1 0
-12149 -12153 -12220 -2 -3 1 0
-12150 -12152 -12220 -3 -2 1 0
-12150 -12153 -12220 -3 1 0
-12148 -12151 -12221 -1 2 0
-12148 -12153 -12221 -1 -3 2 0
-12150 -12151 -12221 -3 -1 2 0
-12150 -12153 -12221 -3 2 0
-12148 -12151 -12222 -1 3 0
-12148 -12152 -12222 -1 -2 3 0
-12149 -12151 -12222 -2 -1 3 0
-12149 -12152 -12222 -2 3 0
-12155 -12158 -12223 -2 1 0
-12155 -12159 -12223 -2 -3 1 0
-12156 -12158 -12223 -3 -2 1 0
-12156 -12159 -12223 -3 1 0
-12154 -12157 -12224 -1 2 0
-12154 -12159 -12224 -1 -3 2 0
-12156 -12157 -12224 -3 -1 2 0
-12156 -12159 -12224 -3 2 0
-12154 -12157 -12225 -1 3 0
-12154 -12158 -12225 -1 -2 3 0
-12155 -12157 -12225 -2 -1 3 0
-12155 -12158 -12225 -2 3 0
-12161 -12164 -12226 -2 1 0
-12161 -12165 -12226 -2 -3 1 0
-12162 -12164 -12226 -3 -2 1 0
-12162 -12165 -12226 -3 1 0
-12160 -12163 -12227 -1 2 0
-12160 -12165 -12227 -1 -3 2 0
-12162 -12163 -12227 -3 -1 2 0
-12162 -12165 -12227 -3 2 0
-12160 -12163 -12228 -1 3 0
-12160 -12164 -12228 -1 -2 3 0
-12161 -12163 -12228 -2 -1 3 0
-12161 -12164 -12228 -2 3 0
-12167 -12170 -12229 -2 1 0
-12167 -12171 -12229 -2 -3 1 0
-12168 -12170 -12229 -3 -2 1 0
-12168 -12171 -12229 -3 1 0
-12166 -12169 -12230 -1 2 0
-12166 -12171 -12230 -1 -3 2 0
-12168 -12169 -12230 -3 -1 2 0
-12168 -12171 -12230 -3 2 0
-12166 -12169 -12231 -1 3 0
-12166 -12170 -12231 -1 -2 3 0
-12167 -12169 -12231 -2 -1 3 0
-12167 -12170 -12231 -2 3 0
-12173 -12176 -12232 -2 1 0
-12173 -12177 -12232 -2 -3 1 0
-12174 -12176 -12232 -3 -2 1 0
-12174 -12177 -12232 -3 1 0
-12172 -12175 -12233 -1 2 0
-12172 -12177 -12233 -1 -3 2 0
-12174 -12175 -12233 -3 -1 2 0
-12174 -12177 -12233 -3 2 0
-12172 -12175 -12234 -1 3 0
-12172 -12176 -12234 -1 -2 3 0
-12173 -12175 -12234 -2 -1 3 0
-12173 -12176 -12234 -2 3 0
-12179 -12182 -12235 -2 1 0
-12179 -12183 -12235 -2 -3 1 0
-12180 -12182 -12235 -3 -2 1 0
-12180 -12183 -12235 -3 1 0
-12178 -12181 -12236 -1 2 0
-12178 -12183 -12236 -1 -3 2 0
-12180 -12181 -12236 -3 -1 2 0
-12180 -12183 -12236 -3 2 0
-12178 -12181 -12237 -1 3 0
-12178 -12182 -12237 -1 -2 3 0
-12179 -12181 -12237 -2 -1 3 0
-12179 -12182 -12237 -2 3 0
-12185 -12188 -12238 -2 1 0
-12185 -12189 -12238 -2 -3 1 0
-12186 -12188 -12238 -3 -2 1 0
-12186 -12189 -12238 -3 1 0
-12184 -12187 -12239 -1 2 0
-12184 -12189 -12239 -1 -3 2 0
-12186 -12187 -12239 -3 -1 2 0
-12186 -12189 -12239 -3 2 0
-12184 -12187 -12240 -1 3 0
-12184 -12188 -12240 -1 -2 3 0
-12185 -12187 -12240 -2 -1 3 0
-12185 -12188 -12240 -2 3 0
-12191 -12194 -12241 -2 1 0
-12191 -12195 -12241 -2 -3 1 0
-12192 -12194 -12241 -3 -2 1 0
-12192 -12195 -12241 -3 1 0
-12190 -12193 -12242 -1 2 0
-12190 -12195 -12242 -1 -3 2 0
-12192 -12193 -12242 -3 -1 2 0
-12192 -12195 -12242 -3 2 0
-12190 -12193 -12243 -1 3 0
-12190 -12194 -12243 -1 -2 3 0
-12191 -12193 -12243 -2 -1 3 0
-12191 -12194 -12243 -2 3 0
-12197 -12200 -12244 -2 1 0
-12197 -12201 -12244 -2 -3 1 0
-12198 -12200 -12244 -3 -2 1 0
-12198 -12201 -12244 -3 1 0
-12196 -12199 -12245 -1 2 0
-12196 -12201 -12245 -1 -3 2 0
-12198 -12199 -12245 -3 -1 2 0
-12198 -12201 -12245 -3 2 0
-12196 -12199 -12246 -1 3 0
-12196 -12200 -12246 -1 -2 3 0
-12197 -12199 -12246 -2 -1 3 0
-12197 -12200 -12246 -2 3 0
-12203 -12206 -12247 -2 1 0
-12203 -12207 -12247 -2 -3 1 0
-12204 -12206 -12247 -3 -2 1 0
-12204 -12207 -12247 -3 1 0
-12202 -12205 -12248 -1 2 0
-12202 -12207 -12248 -1 -3 2 0
-12204 -12205 -12248 -3 -1 2 0
-12204 -12207 -12248 -3 2 0
-12202 -12205 -12249 -1 3 0
-12202 -12206 -12249 -1 -2 3 0
-12203 -12205 -12249 -2 -1 3 0
-12203 -12206 -12249 -2 3 0
-12209 -12212 -12250 -2 1 0
-12209 -12213 -12250 -2 -3 1 0
-12210 -12212 -12250 -3 -2 1 0
-12210 -12213 -12250 -3 1 0
-12208 -12211 -12251 -1 2 0
-12208 -12213 -12251 -1 -3 2 0
-12210 -12211 -12251 -3 -1 2 0
-12210 -12213 -12251 -3 2 0
-12208 -12211 -12252 -1 3 0
-12208 -12212 -12252 -1 -2 3 0
-12209 -12211 -12252 -2 -1 3 0
-12209 -12212 -12252 -2 3 0
-12215 -12218 -12253 -2 1 0
-12215 -12219 -12253 -2 -3 1 0
-12216 -12218 -12253 -3 -2 1 0
-12216 -12219 -12253 -3 1 0
-12214 -12217 -12254 -1 2 0
-12214 -12219 -12254 -1 -3 2 0
-12216 -12217 -12254 -3 -1 2 0
-12216 -12219 -12254 -3 2 0
-12214 -12217 -12255 -1 3 0
-12214 -12218 -12255 -1 -2 3 0
-12215 -12217 -12255 -2 -1 3 0
-12215 -12218 -12255 -2 3 0
-12221 -12224 -12256 -2 1 0
-12221 -12225 -12256 -2 -3 1 0
-12222 -12224 -12256 -3 -2 1 0
-12222 -12225 -12256 -3 1 0
-12220 -12223 -12257 -1 2 0
-12220 -12225 -12257 -1 -3 2 0
-12222 -12223 -12257 -3 -1 2 0
-12222 -12225 -12257 -3 2 0
-12220 -12223 -12258 -1 3 0
-12220 -12224 -12258 -1 -2 3 0
-12221 -12223 -12258 -2 -1 3 0
-12221 -12224 -12258 -2 3 0
-12227 -12230 -12259 -2 1 0
-12227 -12231 -12259 -2 -3 1 0
-12228 -12230 -12259 -3 -2 1 0
-12228 -12231 -12259 -3 1 0
-12226 -12229 -12260 -1 2 0
-12226 -12231 -12260 -1 -3 2 0
-12228 -12229 -12260 -3 -1 2 0
-12228 -12231 -12260 -3 2 0
-12226 -12229 -12261 -1 3 0
-12226 -12230 -12261 -1 -2 3 0
-12227 -12229 -12261 -2 -1 3 0
-12227 -12230 -12261 -2 3 0
-12233 -12236 -12262 -2 1 0
-12233 -12237 -12262 -2 -3 1 0
-12234 -12236 -12262 -3 -2 1 0
-12234 -12237 -12262 -3 1 0
-12232 -12235 -12263 -1 2 0
-12232 -12237 -12263 -1 -3 2 0
-12234 -12235 -12263 -3 -1 2 0
-12234 -12237 -12263 -3 2 0
-12232 -12235 -12264 -1 3 0
-12232 -12236 -12264 -1 -2 3 0
-12233 -12235 -12264 -2 -1 3 0
-12233 -12236 -12264 -2 3 0
-12239 -12242 -12265 -2 1 0
-12239 -12243 -12265 -2 -3 1 0
-12240 -12242 -12265 -3 -2 1 0
-12240 -12243 -12265 -3 1 0
-12238 -12241 -12266 -1 2 0
-12238 -12243 -12266 -1 -3 2 0
-12240 -12241 -12266 -3 -1 2 0
-12240 -12243 -12266 -3 2 0
-12238 -12241 -12267 -1 3 0
-12238 -12242 -12267 -1 -2 3 0
-12239 -12241 -12267 -2 -1 3 0
-12239 -12242 -12267 -2 3 0
-12245 -12248 -12268 -2 1 0
-12245 -12249 -12268 -2 -3 1 0
-12246 -12248 -12268 -3 -2 1 0
-12246 -12249 -12268 -3 1 0
-12244 -12247 -12269 -1 2 0
-12244 -12249 -12269 -1 -3 2 0
-12246 -12247 -12269 -3 -1 2 0
-12246 -12249 -12269 -3 2 0
-12244 -12247 -12270 -1 3 0
-12244 -12248 -12270 -1 -2 3 0
-12245 -12247 -12270 -2 -1 3 0
-12245 -12248 -12270 -2 3 0
-12251 -12254 -12271 -2 1 0
-12251 -12255 -12271 -2 -3 1 0
-12252 -12254 -12271 -3 -2 1 0
-12252 -12255 -12271 -3 1 0
-12250 -12253 -12272 -1 2 0
-12250 -12255 -12272 -1 -3 2 0
-12252 -12253 -12272 -3 -1 2 0
-12252 -12255 -12272 -3 2 0
-12250 -12253 -12273 -1 3 0
-12250 -12254 -12273 -1 -2 3 0
-12251 -12253 -12273 -2 -1 3 0
-12251 -12254 -12273 -2 3 0
-12257 -12260 -12274 -2 1 0
-12257 -12261 -12274 -2 -3 1 0
-12258 -12260 -12274 -3 -2 1 0
-12258 -12261 -12274 -3 1 0
-12256 -12259 -12275 -1 2 0
-12256 -12261 -12275 -1 -3 2 0
-12258 -12259 -12275 -3 -1 2 0
-12258 -12261 -12275 -3 2 0
-12256 -12259 -12276 -1 3 0
-12256 -12260 -12276 -1 -2 3 0
-12257 -12259 -12276 -2 -1 3 0
-12257 -12260 -12276 -2 3 0
-12263 -12266 -12277 -2 1 0
-12263 -12267 -12277 -2 -3 1 0
-12264 -12266 -12277 -3 -2 1 0
-12264 -12267 -12277 -3 1 0
-12262 -12265 -12278 -1 2 0
-12262 -12267 -12278 -1 -3 2 0
-12264 -12265 -12278 -3 -1 2 0
-12264 -12267 -12278 -3 2 0
-12262 -12265 -12279 -1 3 0
-12262 -12266 -12279 -1 -2 3 0
-12263 -12265 -12279 -2 -1 3 0
-12263 -12266 -12279 -2 3 0
-12269 -12272 -12280 -2 1 0
-12269 -12273 -12280 -2 -3 1 0
-12270 -12272 -12280 -3 -2 1 0
-12270 -12273 -12280 -3 1 0
-12268 -12271 -12281 -1 2 0
-12268 -12273 -12281 -1 -3 2 0
-12270 -12271 -12281 -3 -1 2 0
-12270 -12273 -12281 -3 2 0
-12268 -12271 -12282 -1 3 0
-12268 -12272 -12282 -1 -2 3 0
-12269 -12271 -12282 -2 -1 3 0
-12269 -12272 -12282 -2 3 0
-12275 -12278 -12283 -2 1 0
-12275 -12279 -12283 -2 -3 1 0
-12276 -12278 -12283 -3 -2 1 0
-12276 -12279 -12283 -3 1 0
-12274 -12277 -12284 -1 2 0
-12274 -12279 -12284 -1 -3 2 0
-12276 -12277 -12284 -3 -1 2 0
-12276 -12279 -12284 -3 2 0
-12274 -12277 -12285 -1 3 0
-12274 -12278 -12285 -1 -2 3 0
-12275 -12277 -12285 -2 -1 3 0
-12275 -12278 -12285 -2 3 0
-12281 -12284 -12286 -2 1 0
-12281 -12285 -12286 -2 -3 1 0
-12282 -12284 -12286 -3 -2 1 0
-12282 -12285 -12286 -3 1 0
-12280 -12283 -12287 -1 2 0
-12280 -12285 -12287 -1 -3 2 0
-12282 -12283 -12287 -3 -1 2 0
-12282 -12285 -12287 -3 2 0
-12280 -12283 -12288 -1 3 0
-12280 -12284 -12288 -1 -2 3 0
-12281 -12283 -12288 -2 -1 3 0
-12281 -12284 -12288 -2 3 0
-12286 -1 0
-12287 -2 0
-12288 -3 0
