c Generated by benchmark_gbd.py
p cnf 50 200
-41 -8 2 0
48 -7 44 0
28 -3 2 0
2 36 13 0
15 29 -38 0
-11 45 -28 0
49 -22 -7 0
23 39 17 0
25 6 36 0
-24 37 13 0
50 19 -6 0
30 -41 -24 0
-18 45 44 0
35 -47 -16 0
41 45 36 0
50 4 -15 0
-5 14 37 0
26 -42 -30 0
36 35 17 0
26 24 -15 0
-4 8 10 0
39 5 -25 0
17 36 1 0
-35 -49 18 0
11 -30 1 0
33 49 12 0
-20 -41 33 0
11 35 50 0
32 2 8 0
20 16 4 0
6 47 32 0
-9 43 31 0
39 28 14 0
46 -20 26 0
34 -29 -8 0
-38 -36 15 0
41 4 15 0
5 33 -16 0
-9 47 37 0
27 13 -7 0
27 30 47 0
-7 4 26 0
-16 13 -35 0
30 16 5 0
7 4 42 0
-49 16 -11 0
-26 4 -11 0
30 19 28 0
-36 43 -46 0
-4 -38 48 0
4 38 31 0
4 -33 -6 0
-16 26 8 0
40 6 27 0
-17 -14 43 0
-9 43 42 0
5 1 30 0
-5 35 14 0
-5 16 24 0
46 20 40 0
36 20 -43 0
-8 -7 48 0
14 46 22 0
33 -32 -17 0
18 3 1 0
17 11 -48 0
1 8 5 0
24 -38 -36 0
24 3 23 0
23 50 36 0
-16 11 12 0
22 -27 43 0
45 7 -25 0
30 -23 20 0
26 22 -18 0
42 33 26 0
2 8 17 0
-3 7 39 0
28 -39 33 0
-17 3 46 0
35 -44 47 0
28 5 43 0
-8 -47 20 0
-26 -45 19 0
25 44 -48 0
-36 1 20 0
-39 42 21 0
33 31 -48 0
-43 41 40 0
16 44 -20 0
3 -16 31 0
27 41 -37 0
26 16 10 0
50 -7 28 0
-34 30 4 0
30 9 43 0
49 -29 40 0
36 -29 11 0
49 16 41 0
-41 16 -18 0
-18 -22 21 0
-25 -45 10 0
-22 35 30 0
-25 50 38 0
37 25 -31 0
25 27 35 0
-15 32 -18 0
-43 -44 26 0
9 40 35 0
-43 2 6 0
-12 4 -17 0
22 49 25 0
17 6 -31 0
23 15 42 0
49 2 16 0
-16 9 31 0
-30 45 17 0
48 46 -8 0
2 -20 37 0
46 13 5 0
7 45 50 0
8 37 3 0
-5 33 -42 0
32 7 28 0
46 10 28 0
-18 40 35 0
38 18 -21 0
29 16 49 0
-22 2 -32 0
17 -22 18 0
1 -34 -13 0
-36 49 16 0
-29 2 6 0
-20 43 38 0
-28 48 -36 0
20 17 -15 0
-48 -35 49 0
31 18 47 0
-19 7 -13 0
1 -46 35 0
36 19 45 0
-7 1 -37 0
-12 4 -17 0
32 -5 37 0
37 -20 6 0
-39 40 15 0
20 38 -28 0
48 7 -49 0
6 11 -16 0
-27 -29 45 0
-19 46 -45 0
17 -41 38 0
-8 -35 15 0
10 5 4 0
37 -19 -29 0
-26 -18 33 0
3 28 -48 0
15 44 37 0
44 18 -37 0
-34 42 29 0
-41 32 -6 0
-43 7 -11 0
-43 -26 49 0
17 21 8 0
-1 43 -35 0
24 40 49 0
14 18 -36 0
45 32 8 0
16 46 11 0
6 15 8 0
10 32 -46 0
-31 -16 30 0
39 33 -48 0
27 22 -33 0
20 38 -43 0
31 -23 22 0
21 13 -45 0
50 27 3 0
25 -43 -42 0
33 38 -22 0
-34 30 1 0
-10 5 31 0
42 -6 22 0
21 41 -46 0
5 16 41 0
48 6 28 0
-7 -29 11 0
-21 4 -19 0
34 -27 37 0
6 -40 25 0
38 10 -15 0
43 1 -30 0
29 23 -38 0
17 30 20 0
-7 -16 25 0
-45 -19 2 0
44 50 48 0
19 -50 15 0
13 40 17 0
44 9 41 0
