c Generated by benchmark_gbd.py
p cnf 100 400
-82 -15 4 0
95 -14 87 0
55 -5 4 0
4 72 26 0
29 58 -76 0
-21 90 -55 0
98 -44 -14 0
45 78 34 0
49 11 71 0
-47 74 25 0
99 38 -11 0
59 -82 -47 0
-35 90 88 0
69 -94 -32 0
82 89 72 0
100 8 -30 0
-9 28 73 0
51 -83 -59 0
72 69 34 0
52 47 -29 0
-7 15 20 0
77 9 -50 0
33 71 2 0
-69 -97 35 0
21 -59 1 0
65 98 23 0
-39 -82 65 0
21 70 100 0
63 3 15 0
40 31 8 0
11 94 63 0
-17 85 61 0
78 55 28 0
92 -40 52 0
67 -58 -16 0
-76 -71 30 0
81 8 30 0
10 66 -31 0
-17 93 74 0
53 25 -13 0
53 60 94 0
-13 8 52 0
-32 25 -69 0
60 32 10 0
13 7 84 0
-97 31 -22 0
-52 8 -22 0
59 37 55 0
-72 85 -92 0
-8 -75 95 0
7 75 62 0
8 -66 -11 0
-31 52 16 0
80 11 54 0
-34 -27 86 0
-17 86 83 0
10 2 59 0
-10 69 28 0
-9 32 48 0
91 39 79 0
71 39 -85 0
-15 -14 96 0
27 92 44 0
65 -63 -33 0
36 6 1 0
34 21 -95 0
2 15 10 0
48 -75 -71 0
47 6 46 0
46 100 72 0
-31 21 23 0
43 -53 86 0
90 14 -49 0
59 -45 40 0
52 43 -36 0
83 66 52 0
4 15 34 0
-5 14 77 0
56 -78 66 0
-33 6 91 0
69 -88 93 0
56 9 86 0
-16 -93 39 0
-52 -90 38 0
49 87 -96 0
-71 1 39 0
-78 84 42 0
66 61 -95 0
-85 82 80 0
31 87 -40 0
6 -32 61 0
54 81 -74 0
52 32 19 0
-99 14 100 0
90 67 60 0
16 59 18 0
77 41 97 0
65 55 71 0
61 58 -34 0
-100 -67 63 0
-92 37 31 0
11 -18 -20 0
-28 9 -54 0
8 27 54 0
-90 -3 98 0
46 39 97 0
54 69 96 0
-29 63 -35 0
-86 -87 52 0
17 80 69 0
-85 4 11 0
-24 7 -34 0
44 98 49 0
33 11 -61 0
45 29 84 0
97 4 32 0
-31 17 61 0
-60 90 33 0
96 92 -15 0
4 -40 74 0
92 26 10 0
14 90 99 0
16 73 6 0
-9 65 -83 0
63 14 56 0
91 20 56 0
-35 79 69 0
76 35 -42 0
58 32 97 0
-44 4 -64 0
34 -44 36 0
2 -67 -25 0
-72 98 31 0
-58 3 12 0
-40 85 75 0
-55 96 -71 0
40 33 -30 0
-96 -69 98 0
62 36 93 0
-37 13 -25 0
2 -91 69 0
71 38 90 0
-14 2 -74 0
-24 7 -33 0
63 -10 74 0
73 -39 11 0
78 77 -80 0
-57 39 76 0
79 95 -13 0
11 21 -31 0
-53 -58 89 0
-37 91 -90 0
34 -81 76 0
-15 -70 29 0
19 10 8 0
73 -37 -57 0
-52 -35 65 0
6 56 -95 0
30 87 74 0
87 35 -74 0
-67 84 57 0
-82 63 -12 0
-86 14 -21 0
-85 -52 98 0
33 42 15 0
-1 85 -70 0
47 80 97 0
27 35 -71 0
90 63 16 0
31 91 21 0
12 29 15 0
20 64 -92 0
62 61 -32 0
77 66 -96 0
54 44 -65 0
-39 -76 75 0
69 62 45 0
-59 -42 25 0
100 53 6 0
49 -50 85 0
-5 -17 65 0
-57 13 -68 0
84 20 -10 0
-80 -89 51 0
87 69 49 0
-63 70 5 0
37 -30 -96 0
-82 91 -13 0
4 -6 -42 0
19 32 68 0
22 23 11 0
31 -64 75 0
59 33 -86 0
37 -87 70 0
76 39 -82 0
-39 26 -50 0
-46 74 38 0
85 51 36 0
-96 7 78 0
37 -100 30 0
25 80 33 0
88 18 81 0
-40 -57 5 0
-38 42 -96 0
70 47 68 0
33 62 38 0
60 10 19 0
51 72 -47 0
69 16 59 0
-75 49 -82 0
4 80 -72 0
-9 -82 60 0
18 6 -5 0
-31 69 18 0
96 90 70 0
54 84 13 0
-36 5 -89 0
-31 47 13 0
-83 46 8 0
59 12 85 0
3 7 43 0
-27 -9 98 0
30 43 100 0
-36 -19 17 0
85 -4 17 0
76 -42 -3 0
-54 -68 15 0
47 -66 -76 0
79 -6 94 0
-4 8 -62 0
92 -57 -10 0
17 36 80 0
-49 77 68 0
13 90 15 0
93 28 -56 0
-59 -52 54 0
86 33 -48 0
12 11 -56 0
17 72 8 0
86 16 53 0
55 93 -7 0
74 65 -28 0
-14 45 -72 0
29 55 72 0
-4 -78 85 0
-90 98 -40 0
-19 73 85 0
-4 -12 96 0
44 21 48 0
73 -77 11 0
-7 87 -11 0
-78 57 54 0
45 56 15 0
68 -86 40 0
8 1 27 0
-98 33 -38 0
56 23 -17 0
72 -86 46 0
56 3 59 0
-74 -52 91 0
-3 42 22 0
47 -12 56 0
68 11 -51 0
100 22 10 0
25 100 45 0
19 -31 -14 0
20 -98 84 0
64 -60 97 0
-73 83 82 0
41 -20 57 0
36 76 -8 0
58 5 -8 0
-12 79 77 0
95 -6 58 0
61 -65 20 0
44 -92 11 0
91 -57 68 0
37 50 -53 0
81 -83 43 0
50 37 33 0
78 20 -43 0
45 -40 84 0
-91 11 40 0
17 86 90 0
12 83 -86 0
40 24 -28 0
29 -18 20 0
65 -99 70 0
44 99 -80 0
24 -89 99 0
57 6 -53 0
57 -79 37 0
31 -40 61 0
57 60 99 0
-54 -21 26 0
83 62 48 0
67 16 -37 0
66 19 -56 0
-58 45 4 0
-31 50 -11 0
13 92 -84 0
37 61 -90 0
79 -1 11 0
-71 94 78 0
31 -39 16 0
80 59 -9 0
69 3 81 0
-38 55 1 0
24 -86 11 0
68 -70 65 0
61 6 -82 0
-3 46 9 0
14 -99 75 0
-46 70 44 0
-60 -90 62 0
92 -100 -59 0
26 6 41 0
70 61 -33 0
-46 -100 7 0
-48 56 52 0
-44 24 64 0
-67 -35 11 0
-24 70 -38 0
38 -40 58 0
57 45 58 0
79 56 36 0
-10 86 82 0
87 21 4 0
57 -5 17 0
47 50 73 0
48 57 98 0
-51 41 -84 0
-95 24 64 0
-34 100 91 0
89 -63 -26 0
23 92 57 0
-41 86 45 0
39 21 92 0
47 66 29 0
31 64 -4 0
71 -17 -79 0
-92 -93 62 0
74 10 -17 0
88 67 45 0
82 -76 24 0
8 -16 -67 0
91 29 45 0
-33 26 82 0
79 69 12 0
75 20 22 0
44 -73 6 0
-99 74 34 0
80 82 4 0
83 39 62 0
-39 -59 10 0
62 60 -27 0
92 41 -94 0
48 -66 -72 0
35 -58 -32 0
50 79 54 0
-42 74 -93 0
-66 60 -64 0
51 -65 -59 0
7 37 64 0
61 37 -69 0
-34 94 -47 0
73 72 -25 0
-65 58 98 0
88 79 -16 0
44 -72 47 0
65 6 5 0
67 -59 20 0
79 41 21 0
39 76 44 0
91 73 -39 0
-87 15 54 0
-89 81 4 0
100 75 74 0
22 68 81 0
19 88 32 0
-25 3 -57 0
27 53 65 0
-95 -94 8 0
-42 85 62 0
-59 69 44 0
-93 -88 83 0
-32 36 72 0
-39 99 37 0
41 62 45 0
36 -37 16 0
51 -45 -99 0
92 11 45 0
28 26 69 0
18 -14 79 0
-86 -68 29 0
43 92 -61 0
71 21 53 0
-62 84 26 0
-99 12 84 0
5 23 -54 0
