c Generated by benchmark_gbd.py
p cnf 75 300
15 -4 36 0
70 -12 -55 0
65 4 72 0
-54 29 58 0
-21 55 44 0
-44 14 12 0
-34 6 59 0
11 71 38 0
74 25 9 0
-11 30 13 0
-47 21 -48 0
-10 -22 69 0
-35 72 29 0
-8 30 -5 0
-73 41 28 0
59 -19 34 0
-34 -75 55 0
18 66 64 0
-20 -21 55 0
60 -68 33 0
-15 -69 35 0
21 -59 1 0
-65 23 14 0
26 20 48 0
-68 1 42 0
40 31 8 0
11 -63 9 0
61 71 22 0
-28 70 26 0
-48 57 -67 0
44 3 -71 0
8 30 -9 0
31 36 63 0
74 61 -32 0
-13 56 46 0
7 13 8 0
14 32 -25 0
24 36 -60 0
71 13 7 0
-12 31 -22 0
-52 8 -22 0
59 37 55 0
72 -63 20 0
-75 -70 8 0
62 -65 68 0
-24 9 31 0
-32 75 6 0
-73 67 41 0
31 34 -51 0
41 10 2 0
13 10 -69 0
-45 9 -32 0
70 39 68 0
14 18 34 0
-20 -35 37 0
34 65 63 0
12 -55 36 0
34 21 57 0
-15 -10 20 0
71 -19 -56 0
-6 -46 27 0
72 53 20 0
23 53 -4 0
53 32 -35 0
5 61 -29 0
40 30 -29 0
36 9 45 0
69 43 -4 0
75 34 -5 0
41 -56 66 0
33 6 56 0
26 47 56 0
-41 -16 39 0
52 -38 71 0
-49 23 73 0
39 37 27 0
42 60 57 0
22 11 37 0
12 31 -40 0
6 -32 61 0
54 -74 25 0
32 19 -1 0
-67 60 7 0
59 18 60 0
41 57 65 0
21 61 58 0
-36 -67 63 0
-37 31 35 0
18 20 30 0
9 54 -53 0
27 -54 50 0
74 49 -62 0
50 54 69 0
-29 63 -35 0
52 22 60 0
51 73 -4 0
-60 24 -7 0
42 44 49 0
33 11 -61 0
-45 -29 9 0
-32 -26 3 0
15 73 28 0
-22 15 -21 0
40 74 -49 0
32 -14 39 0
-73 -6 45 0
65 44 -2 0
-47 59 20 0
-35 69 62 0
35 -42 -32 0
-60 73 49 0
24 63 -28 0
36 -72 2 0
53 63 72 0
63 -58 -3 0
-32 40 75 0
55 71 -43 0
-33 -30 16 0
69 24 -25 0
68 -37 -13 0
39 -2 69 0
71 -38 17 0
-2 74 -37 0
7 33 -62 0
10 -74 7 0
39 11 -32 0
29 67 -49 0
-55 40 73 0
13 27 -28 0
23 -71 -10 0
61 -38 -5 0
59 10 30 0
-26 -55 15 0
35 -19 -10 0
73 -37 -57 0
-52 -35 65 0
-6 -56 42 0
-74 3 35 0
-61 67 57 0
-63 12 -61 0
14 21 -43 0
-52 71 -5 0
15 52 66 0
-53 7 25 0
57 7 27 0
57 63 16 0
-31 -21 40 0
29 15 -60 0
38 66 35 0
32 -59 71 0
66 18 9 0
44 -65 -35 0
75 63 -20 0
71 70 49 0
31 74 -50 0
41 61 49 0
20 64 5 0
-13 57 -68 0
-20 10 61 0
11 43 69 0
-63 70 5 0
37 30 12 0
-13 -57 22 0
-42 8 -38 0
68 -53 73 0
11 49 -31 0
60 33 59 0
60 -37 70 0
39 55 -33 0
50 -62 -14 0
-38 3 51 0
7 64 -37 0
-25 33 18 0
6 40 57 0
-12 -38 42 0
70 47 68 0
33 62 38 0
60 10 19 0
51 72 -47 0
69 16 59 0
75 49 -48 0
-72 42 29 0
39 -53 -15 0
64 15 -13 0
59 48 70 0
-54 13 63 0
-5 48 -28 0
47 13 48 0
8 51 36 0
59 12 28 0
7 43 -32 0
71 -27 -28 0
1 36 19 0
15 -4 17 0
-42 3 23 0
-68 15 -9 0
14 58 -65 0
67 -39 59 0
-62 52 55 0
57 10 -11 0
-36 75 71 0
68 -38 59 0
-15 71 -28 0
44 59 -52 0
41 33 -48 0
12 11 -56 0
17 72 8 0
16 -53 46 0
-7 37 40 0
20 -62 29 0
15 36 74 0
72 -4 35 0
40 -44 -45 0
52 -9 19 0
-68 28 -49 0
-40 -42 73 0
-21 7 -11 0
57 54 -35 0
56 -15 37 0
40 6 -29 0
27 39 -28 0
-16 -1 64 0
69 30 65 0
-10 51 6 0
-41 74 55 0
38 15 -52 0
59 47 -12 0
52 68 11 0
29 43 -22 0
66 25 45 0
19 -31 -14 0
-20 10 23 0
75 58 73 0
41 -20 57 0
-36 -8 46 0
-5 8 48 0
12 65 50 0
-6 58 74 0
-65 20 8 0
-44 -11 65 0
-57 -68 67 0
37 50 -53 0
43 -9 13 0
20 43 11 0
40 -51 17 0
72 49 43 0
-68 -12 55 0
-24 28 44 0
20 10 38 0
-68 -5 44 0
-21 -24 22 0
31 -57 37 0
31 -40 61 0
57 60 -37 0
-21 26 -18 0
48 71 14 0
-37 11 21 0
56 12 29 0
-54 -7 51 0
11 -48 -29 0
43 -19 18 0
-18 -61 58 0
33 28 20 0
55 -15 -37 0
54 59 -9 0
-69 -3 66 0
55 1 -46 0
11 68 47 0
65 71 -3 0
-50 48 33 0
45 -31 14 0
6 46 -70 0
60 -62 24 0
59 -5 -38 0
-6 41 40 0
-61 -33 5 0
7 43 -35 0
52 57 -50 0
64 48 67 0
-11 -56 24 0
42 38 -40 0
57 45 58 0
56 36 -8 0
66 21 4 0
57 -5 17 0
47 50 73 0
-48 -57 10 0
41 -36 -32 0
67 -50 -72 0
58 -28 37 0
-16 18 10 0
-12 41 45 0
39 21 -23 0
-26 18 31 0
48 60 -71 0
-40 -51 62 0
74 10 -17 0
67 -45 17 0
17 56 65 0
39 22 -21 0
