c Generated by benchmark_gbd.py
p cnf 96 200
-37 67 0
37 -67 0
-37 -38 68 0
-37 38 -68 0
37 -38 -68 0
37 38 68 0
-38 -39 69 0
-38 39 -69 0
38 -39 -69 0
38 39 69 0
-39 -40 70 0
-39 40 -70 0
39 -40 -70 0
39 40 70 0
-40 -41 71 0
-40 41 -71 0
40 -41 -71 0
40 41 71 0
-41 72 0
41 -72 0
-42 -67 73 0
-42 67 -73 0
42 -67 -73 0
42 67 73 0
-42 -43 -68 74 0
-42 -43 68 -74 0
-42 43 -68 -74 0
-42 43 68 74 0
42 -43 -68 -74 0
42 -43 68 74 0
42 43 -68 74 0
42 43 68 -74 0
-43 -44 -69 75 0
-43 -44 69 -75 0
-43 44 -69 -75 0
-43 44 69 75 0
43 -44 -69 -75 0
43 -44 69 75 0
43 44 -69 75 0
43 44 69 -75 0
-44 -45 -70 76 0
-44 -45 70 -76 0
-44 45 -70 -76 0
-44 45 70 76 0
44 -45 -70 -76 0
44 -45 70 76 0
44 45 -70 76 0
44 45 70 -76 0
-45 -46 -71 77 0
-45 -46 71 -77 0
-45 46 -71 -77 0
-45 46 71 77 0
45 -46 -71 -77 0
45 -46 71 77 0
45 46 -71 77 0
45 46 71 -77 0
-46 -72 78 0
-46 72 -78 0
46 -72 -78 0
46 72 78 0
-47 -73 79 0
-47 73 -79 0
47 -73 -79 0
47 73 79 0
-47 -48 -74 80 0
-47 -48 74 -80 0
-47 48 -74 -80 0
-47 48 74 80 0
47 -48 -74 -80 0
47 -48 74 80 0
47 48 -74 80 0
47 48 74 -80 0
-48 -49 -75 81 0
-48 -49 75 -81 0
-48 49 -75 -81 0
-48 49 75 81 0
48 -49 -75 -81 0
48 -49 75 81 0
48 49 -75 81 0
48 49 75 -81 0
-49 -50 -76 82 0
-49 -50 76 -82 0
-49 50 -76 -82 0
-49 50 76 82 0
49 -50 -76 -82 0
49 -50 76 82 0
49 50 -76 82 0
49 50 76 -82 0
-50 -51 -77 83 0
-50 -51 77 -83 0
-50 51 -77 -83 0
-50 51 77 83 0
50 -51 -77 -83 0
50 -51 77 83 0
50 51 -77 83 0
50 51 77 -83 0
-51 -78 84 0
-51 78 -84 0
51 -78 -84 0
51 78 84 0
-52 -79 85 0
-52 79 -85 0
52 -79 -85 0
52 79 85 0
-52 -53 -80 86 0
-52 -53 80 -86 0
-52 53 -80 -86 0
-52 53 80 86 0
52 -53 -80 -86 0
52 -53 80 86 0
52 53 -80 86 0
52 53 80 -86 0
-53 -54 -81 87 0
-53 -54 81 -87 0
-53 54 -81 -87 0
-53 54 81 87 0
53 -54 -81 -87 0
53 -54 81 87 0
53 54 -81 87 0
53 54 81 -87 0
-54 -55 -82 88 0
-54 -55 82 -88 0
-54 55 -82 -88 0
-54 55 82 88 0
54 -55 -82 -88 0
54 -55 82 88 0
54 55 -82 88 0
54 55 82 -88 0
-55 -56 -83 89 0
-55 -56 83 -89 0
-55 56 -83 -89 0
-55 56 83 89 0
55 -56 -83 -89 0
55 -56 83 89 0
55 56 -83 89 0
55 56 83 -89 0
-56 -84 90 0
-56 84 -90 0
56 -84 -90 0
56 84 90 0
-57 -85 91 0
-57 85 -91 0
57 -85 -91 0
57 85 91 0
-57 -58 -86 92 0
-57 -58 86 -92 0
-57 58 -86 -92 0
-57 58 86 92 0
57 -58 -86 -92 0
57 -58 86 92 0
57 58 -86 92 0
57 58 86 -92 0
-58 -59 -87 93 0
-58 -59 87 -93 0
-58 59 -87 -93 0
-58 59 87 93 0
58 -59 -87 -93 0
58 -59 87 93 0
58 59 -87 93 0
58 59 87 -93 0
-59 -60 -88 94 0
-59 -60 88 -94 0
-59 60 -88 -94 0
-59 60 88 94 0
59 -60 -88 -94 0
59 -60 88 94 0
59 60 -88 94 0
59 60 88 -94 0
-60 -61 -89 95 0
-60 -61 89 -95 0
-60 61 -89 -95 0
-60 61 89 95 0
60 -61 -89 -95 0
60 -61 89 95 0
60 61 -89 95 0
60 61 89 -95 0
-61 -90 96 0
-61 90 -96 0
61 -90 -96 0
61 90 96 0
-62 91 0
62 -91 0
-62 -63 92 0
-62 63 -92 0
62 -63 -92 0
62 63 92 0
-63 -64 93 0
-63 64 -93 0
63 -64 -93 0
63 64 93 0
-64 -65 94 0
-64 65 -94 0
64 -65 -94 0
64 65 94 0
-65 -66 95 0
-65 66 -95 0
65 -66 -95 0
65 66 95 0
-66 96 0
66 -96 0
