c Generated by benchmark_gbd.py
p cnf 133 288
-50 92 0
50 -92 0
-50 -51 93 0
-50 51 -93 0
50 -51 -93 0
50 51 93 0
-51 -52 94 0
-51 52 -94 0
51 -52 -94 0
51 52 94 0
-52 -53 95 0
-52 53 -95 0
52 -53 -95 0
52 53 95 0
-53 -54 96 0
-53 54 -96 0
53 -54 -96 0
53 54 96 0
-54 -55 97 0
-54 55 -97 0
54 -55 -97 0
54 55 97 0
-55 98 0
55 -98 0
-56 -92 99 0
-56 92 -99 0
56 -92 -99 0
56 92 99 0
-56 -57 -93 100 0
-56 -57 93 -100 0
-56 57 -93 -100 0
-56 57 93 100 0
56 -57 -93 -100 0
56 -57 93 100 0
56 57 -93 100 0
56 57 93 -100 0
-57 -58 -94 101 0
-57 -58 94 -101 0
-57 58 -94 -101 0
-57 58 94 101 0
57 -58 -94 -101 0
57 -58 94 101 0
57 58 -94 101 0
57 58 94 -101 0
-58 -59 -95 102 0
-58 -59 95 -102 0
-58 59 -95 -102 0
-58 59 95 102 0
58 -59 -95 -102 0
58 -59 95 102 0
58 59 -95 102 0
58 59 95 -102 0
-59 -60 -96 103 0
-59 -60 96 -103 0
-59 60 -96 -103 0
-59 60 96 103 0
59 -60 -96 -103 0
59 -60 96 103 0
59 60 -96 103 0
59 60 96 -103 0
-60 -61 -97 104 0
-60 -61 97 -104 0
-60 61 -97 -104 0
-60 61 97 104 0
60 -61 -97 -104 0
60 -61 97 104 0
60 61 -97 104 0
60 61 97 -104 0
-61 -98 105 0
-61 98 -105 0
61 -98 -105 0
61 98 105 0
-62 -99 106 0
-62 99 -106 0
62 -99 -106 0
62 99 106 0
-62 -63 -100 107 0
-62 -63 100 -107 0
-62 63 -100 -107 0
-62 63 100 107 0
62 -63 -100 -107 0
62 -63 100 107 0
62 63 -100 107 0
62 63 100 -107 0
-63 -64 -101 108 0
-63 -64 101 -108 0
-63 64 -101 -108 0
-63 64 101 108 0
63 -64 -101 -108 0
63 -64 101 108 0
63 64 -101 108 0
63 64 101 -108 0
-64 -65 -102 109 0
-64 -65 102 -109 0
-64 65 -102 -109 0
-64 65 102 109 0
64 -65 -102 -109 0
64 -65 102 109 0
64 65 -102 109 0
64 65 102 -109 0
-65 -66 -103 110 0
-65 -66 103 -110 0
-65 66 -103 -110 0
-65 66 103 110 0
65 -66 -103 -110 0
65 -66 103 110 0
65 66 -103 110 0
65 66 103 -110 0
-66 -67 -104 111 0
-66 -67 104 -111 0
-66 67 -104 -111 0
-66 67 104 111 0
66 -67 -104 -111 0
66 -67 104 111 0
66 67 -104 111 0
66 67 104 -111 0
-67 -105 112 0
-67 105 -112 0
67 -105 -112 0
67 105 112 0
-68 -106 113 0
-68 106 -113 0
68 -106 -113 0
68 106 113 0
-68 -69 -107 114 0
-68 -69 107 -114 0
-68 69 -107 -114 0
-68 69 107 114 0
68 -69 -107 -114 0
68 -69 107 114 0
68 69 -107 114 0
68 69 107 -114 0
-69 -70 -108 115 0
-69 -70 108 -115 0
-69 70 -108 -115 0
-69 70 108 115 0
69 -70 -108 -115 0
69 -70 108 115 0
69 70 -108 115 0
69 70 108 -115 0
-70 -71 -109 116 0
-70 -71 109 -116 0
-70 71 -109 -116 0
-70 71 109 116 0
70 -71 -109 -116 0
70 -71 109 116 0
70 71 -109 116 0
70 71 109 -116 0
-71 -72 -110 117 0
-71 -72 110 -117 0
-71 72 -110 -117 0
-71 72 110 117 0
71 -72 -110 -117 0
71 -72 110 117 0
71 72 -110 117 0
71 72 110 -117 0
-72 -73 -111 118 0
-72 -73 111 -118 0
-72 73 -111 -118 0
-72 73 111 118 0
72 -73 -111 -118 0
72 -73 111 118 0
72 73 -111 118 0
72 73 111 -118 0
-73 -112 119 0
-73 112 -119 0
73 -112 -119 0
73 112 119 0
-74 -113 120 0
-74 113 -120 0
74 -113 -120 0
74 113 120 0
-74 -75 -114 121 0
-74 -75 114 -121 0
-74 75 -114 -121 0
-74 75 114 121 0
74 -75 -114 -121 0
74 -75 114 121 0
74 75 -114 121 0
74 75 114 -121 0
-75 -76 -115 122 0
-75 -76 115 -122 0
-75 76 -115 -122 0
-75 76 115 122 0
75 -76 -115 -122 0
75 -76 115 122 0
75 76 -115 122 0
75 76 115 -122 0
-76 -77 -116 123 0
-76 -77 116 -123 0
-76 77 -116 -123 0
-76 77 116 123 0
76 -77 -116 -123 0
76 -77 116 123 0
76 77 -116 123 0
76 77 116 -123 0
-77 -78 -117 124 0
-77 -78 117 -124 0
-77 78 -117 -124 0
-77 78 117 124 0
77 -78 -117 -124 0
77 -78 117 124 0
77 78 -117 124 0
77 78 117 -124 0
-78 -79 -118 125 0
-78 -79 118 -125 0
-78 79 -118 -125 0
-78 79 118 125 0
78 -79 -118 -125 0
78 -79 118 125 0
78 79 -118 125 0
78 79 118 -125 0
-79 -119 126 0
-79 119 -126 0
79 -119 -126 0
79 119 126 0
-80 -120 127 0
-80 120 -127 0
80 -120 -127 0
80 120 127 0
-80 -81 -121 128 0
-80 -81 121 -128 0
-80 81 -121 -128 0
-80 81 121 128 0
80 -81 -121 -128 0
80 -81 121 128 0
80 81 -121 128 0
80 81 121 -128 0
-81 -82 -122 129 0
-81 -82 122 -129 0
-81 82 -122 -129 0
-81 82 122 129 0
81 -82 -122 -129 0
81 -82 122 129 0
81 82 -122 129 0
81 82 122 -129 0
-82 -83 -123 130 0
-82 -83 123 -130 0
-82 83 -123 -130 0
-82 83 123 130 0
82 -83 -123 -130 0
82 -83 123 130 0
82 83 -123 130 0
82 83 123 -130 0
-83 -84 -124 131 0
-83 -84 124 -131 0
-83 84 -124 -131 0
-83 84 124 131 0
83 -84 -124 -131 0
83 -84 124 131 0
83 84 -124 131 0
83 84 124 -131 0
-84 -85 -125 132 0
-84 -85 125 -132 0
-84 85 -125 -132 0
-84 85 125 132 0
84 -85 -125 -132 0
84 -85 125 132 0
84 85 -125 132 0
84 85 125 -132 0
-85 -126 133 0
-85 126 -133 0
85 -126 -133 0
85 126 133 0
-86 127 0
86 -127 0
-86 -87 128 0
-86 87 -128 0
86 -87 -128 0
86 87 128 0
-87 -88 129 0
-87 88 -129 0
87 -88 -129 0
87 88 129 0
-88 -89 130 0
-88 89 -130 0
88 -89 -130 0
88 89 130 0
-89 -90 131 0
-89 90 -131 0
89 -90 -131 0
89 90 131 0
-90 -91 132 0
-90 91 -132 0
90 -91 -132 0
90 91 132 0
-91 133 0
91 -133 0
