c Generated by benchmark_gbd.py
p cnf 65 128
-26 46 0
26 -46 0
-26 -27 47 0
-26 27 -47 0
26 -27 -47 0
26 27 47 0
-27 -28 48 0
-27 28 -48 0
27 -28 -48 0
27 28 48 0
-28 -29 49 0
-28 29 -49 0
28 -29 -49 0
28 29 49 0
-29 50 0
29 -50 0
-30 -46 51 0
-30 46 -51 0
30 -46 -51 0
30 46 51 0
-30 -31 -47 52 0
-30 -31 47 -52 0
-30 31 -47 -52 0
-30 31 47 52 0
30 -31 -47 -52 0
30 -31 47 52 0
30 31 -47 52 0
30 31 47 -52 0
-31 -32 -48 53 0
-31 -32 48 -53 0
-31 32 -48 -53 0
-31 32 48 53 0
31 -32 -48 -53 0
31 -32 48 53 0
31 32 -48 53 0
31 32 48 -53 0
-32 -33 -49 54 0
-32 -33 49 -54 0
-32 33 -49 -54 0
-32 33 49 54 0
32 -33 -49 -54 0
32 -33 49 54 0
32 33 -49 54 0
32 33 49 -54 0
-33 -50 55 0
-33 50 -55 0
33 -50 -55 0
33 50 55 0
-34 -51 56 0
-34 51 -56 0
34 -51 -56 0
34 51 56 0
-34 -35 -52 57 0
-34 -35 52 -57 0
-34 35 -52 -57 0
-34 35 52 57 0
34 -35 -52 -57 0
34 -35 52 57 0
34 35 -52 57 0
34 35 52 -57 0
-35 -36 -53 58 0
-35 -36 53 -58 0
-35 36 -53 -58 0
-35 36 53 58 0
35 -36 -53 -58 0
35 -36 53 58 0
35 36 -53 58 0
35 36 53 -58 0
-36 -37 -54 59 0
-36 -37 54 -59 0
-36 37 -54 -59 0
-36 37 54 59 0
36 -37 -54 -59 0
36 -37 54 59 0
36 37 -54 59 0
36 37 54 -59 0
-37 -55 60 0
-37 55 -60 0
37 -55 -60 0
37 55 60 0
-38 -56 61 0
-38 56 -61 0
38 -56 -61 0
38 56 61 0
-38 -39 -57 62 0
-38 -39 57 -62 0
-38 39 -57 -62 0
-38 39 57 62 0
38 -39 -57 -62 0
38 -39 57 62 0
38 39 -57 62 0
38 39 57 -62 0
-39 -40 -58 63 0
-39 -40 58 -63 0
-39 40 -58 -63 0
-39 40 58 63 0
39 -40 -58 -63 0
39 -40 58 63 0
39 40 -58 63 0
39 40 58 -63 0
-40 -41 -59 64 0
-40 -41 59 -64 0
-40 41 -59 -64 0
-40 41 59 64 0
40 -41 -59 -64 0
40 -41 59 64 0
40 41 -59 64 0
40 41 59 -64 0
-41 -60 65 0
-41 60 -65 0
41 -60 -65 0
41 60 65 0
-42 61 0
42 -61 0
-42 -43 62 0
-42 43 -62 0
42 -43 -62 0
42 43 62 0
-43 -44 63 0
-43 44 -63 0
43 -44 -63 0
43 44 63 0
-44 -45 64 0
-44 45 -64 0
44 -45 -64 0
44 45 64 0
-45 65 0
45 -65 0
