c Generated by benchmark_gbd.py
p cnf 40 74
-17 29 0
17 -29 0
-17 -18 30 0
-17 18 -30 0
17 -18 -30 0
17 18 30 0
-18 -19 31 0
-18 19 -31 0
18 -19 -31 0
18 19 31 0
-19 32 0
19 -32 0
-20 -29 33 0
-20 29 -33 0
20 -29 -33 0
20 29 33 0
-20 -21 -30 34 0
-20 -21 30 -34 0
-20 21 -30 -34 0
-20 21 30 34 0
20 -21 -30 -34 0
20 -21 30 34 0
20 21 -30 34 0
20 21 30 -34 0
-21 -22 -31 35 0
-21 -22 31 -35 0
-21 22 -31 -35 0
-21 22 31 35 0
21 -22 -31 -35 0
21 -22 31 35 0
21 22 -31 35 0
21 22 31 -35 0
-22 -32 36 0
-22 32 -36 0
22 -32 -36 0
22 32 36 0
-23 -33 37 0
-23 33 -37 0
23 -33 -37 0
23 33 37 0
-23 -24 -34 38 0
-23 -24 34 -38 0
-23 24 -34 -38 0
-23 24 34 38 0
23 -24 -34 -38 0
23 -24 34 38 0
23 24 -34 38 0
23 24 34 -38 0
-24 -25 -35 39 0
-24 -25 35 -39 0
-24 25 -35 -39 0
-24 25 35 39 0
24 -25 -35 -39 0
24 -25 35 39 0
24 25 -35 39 0
24 25 35 -39 0
-25 -36 40 0
-25 36 -40 0
25 -36 -40 0
25 36 40 0
-26 37 0
26 -37 0
-26 -27 38 0
-26 27 -38 0
26 -27 -38 0
26 27 38 0
-27 -28 39 0
-27 28 -39 0
27 -28 -39 0
27 28 39 0
-28 40 0
28 -40 0
1 0
-1 0
