c Generated CNF formula
p cnf 50 50
41 8 -48 0
16 15 48 0
44 48 -38 0
3 2 14 0
33 39 36 0
46 -42 -15 0
38 18 49 0
45 -28 18 0
14 -49 7 0
25 -7 -23 0
3 -47 35 0
25 -6 -41 0
37 13 3 0
50 19 15 0
25 -18 -41 0
11 -24 -14 0
45 44 39 0
35 47 -11 0
25 18 -44 0
50 50 15 0
21 -26 5 0
37 -46 -14 0
26 -42 -10 0
9 -16 -48 0
38 -26 15 0
33 32 49 0
8 10 -44 0
39 -5 -25 0
34 17 44 0
44 -35 -50 0
8 -19 -11 0
1 -47 33 0
33 -7 41 0
10 24 35 0
39 -21 2 0
24 20 4 0
37 6 -47 0
5 49 -9 0
36 -11 -34 0
14 35 -46 0
26 -43 -29 0
8 16 -5 0
2 38 38 0
1 5 15 0
3 22 33 0
18 -43 14 0
47 -37 -16 0
27 13 -7 0
23 -28 30 0
44 42 -4 0
