c Generated CNF formula
p cnf 60 60
41 8 -48 0
16 15 48 0
44 48 -38 0
3 2 14 0
33 39 36 0
46 -42 -15 0
38 18 49 0
45 -28 18 0
14 -49 7 0
25 -7 -55 0
39 17 -47 0
35 -8 -6 0
54 -41 37 0
46 5 43 0
50 19 55 0
56 -7 -18 0
41 -54 -11 0
23 -14 45 0
39 41 35 0
11 -30 18 0
44 21 15 0
52 -21 18 0
14 -59 -14 0
26 -57 -10 0
9 -16 -48 0
58 -38 24 0
9 -33 6 0
56 8 41 0
51 -44 39 0
25 -25 -34 0
36 56 44 0
44 -57 -50 0
8 -19 -11 0
1 -47 33 0
33 59 -56 0
54 41 -10 0
49 11 -39 0
32 2 -60 0
57 -54 16 0
16 57 -6 0
53 5 -9 0
36 -11 -34 0
14 60 -46 0
26 -43 -29 0
8 16 -5 0
2 38 38 0
1 5 15 0
58 -3 5 0
18 -43 14 0
47 -60 -16 0
52 27 7 0
43 -28 -28 0
30 56 44 0
4 -26 52 0
16 13 -35 0
9 28 -18 0
16 56 29 0
4 42 6 0
11 -27 31 0
56 26 -11 0
