c Generated CNF formula
p cnf 70 70
15 -4 32 0
18 14 55 0
4 12 30 0
26 -70 -29 0
36 1 -55 0
36 20 44 0
12 49 -46 0
34 -6 69 0
49 -11 47 0
9 6 38 0
30 -13 -36 0
47 -21 46 0
35 10 69 0
21 -60 35 0
42 8 -5 0
52 35 -28 0
28 -64 59 0
34 18 -69 0
55 -52 29 0
66 64 7 0
20 -21 -9 0
49 -60 2 0
69 -35 -15 0
56 -21 -1 0
65 23 39 0
20 48 70 0
42 63 -15 0
40 31 31 0
11 63 69 0
17 61 -34 0
28 70 -40 0
48 -57 16 0
29 -9 3 0
29 1 8 0
9 -5 10 0
36 63 70 0
61 -32 53 0
13 -13 -46 0
53 60 13 0
52 44 32 0
25 -69 -18 0
24 -36 32 0
57 13 70 0
12 31 -53 0
62 -28 8 0
49 -1 -34 0
37 -55 20 0
38 28 70 0
41 8 62 0
8 66 24 0
9 -31 16 0
6 -11 -67 0
34 -27 -31 0
51 -17 -59 0
10 -2 13 0
69 -28 -17 0
9 -32 37 0
57 -70 68 0
39 14 34 0
14 -20 37 0
44 -27 -65 0
33 7 -55 0
6 -1 -17 0
21 -57 2 0
10 20 48 0
56 17 -40 0
6 46 32 0
46 53 31 0
23 53 -23 0
53 -32 21 0
