c Generated CNF formula
p cnf 70 280
1 27 -64 0
1 -29 -18 0
1 9 37 0
1 16 58 0
1 6 31 0
1 49 44 0
1 49 46 0
1 26 17 0
1 8 59 0
1 -35 -22 0
1 -35 66 0
1 6 -57 0
1 39 -68 0
1 -36 -63 0
1 66 22 0
1 -43 -17 0
1 -61 -29 0
1 -6 -50 0
1 45 67 0
1 -49 -4 0
1 -7 20 0
1 25 69 0
1 -14 5 0
1 44 -42 0
1 -38 -40 0
1 26 63 0
1 -32 -39 0
1 -52 -9 0
1 -41 7 0
1 26 -4 0
1 9 63 0
1 19 -44 0
1 55 -49 0
1 -27 66 0
1 -67 -29 0
1 -48 -19 0
1 -23 -20 0
1 14 -63 0
1 -17 -60 0
1 -15 48 0
1 17 45 0
1 28 -26 0
1 54 -49 0
1 69 -66 0
1 -12 -36 0
1 9 0
1 -33 67 0
1 2 -62 0
1 -45 25 0
1 -22 63 0
1 18 0
1 16 57 0
1 -18 -20 0
1 5 23 0
1 -26 -33 0
1 -47 39 0
1 51 -27 0
1 -19 58 0
1 12 -26 0
1 38 -60 0
1 -65 20 0
1 18 32 0
1 29 -57 0
1 7 18 0
1 29 -17 0
1 3 -7 0
1 -69 -16 0
1 6 4 0
1 23 -22 0
1 -67 32 0
1 -56 -38 0
1 -66 -64 0
1 61 35 0
1 -26 -45 0
1 23 2 0
1 -33 68 0
1 -47 8 0
1 32 8 0
1 60 -19 0
1 66 -29 0
1 -34 -64 0
1 -57 29 0
1 -60 -13 0
1 -47 17 0
1 9 63 0
1 60 70 0
1 -39 4 0
1 36 55 0
1 -39 -29 0
1 40 -47 0
1 -2 -24 0
1 35 31 0
1 -55 41 0
1 -11 -12 0
1 56 52 0
1 14 17 0
1 -39 8 0
1 -49 -22 0
1 14 -66 0
1 59 -29 0
1 -62 -69 0
1 39 -10 0
1 -59 55 0
1 66 62 0
1 -23 39 0
1 -70 0
1 20 -42 0
1 64 -60 0
1 -18 63 0
1 20 -62 0
1 -44 6 0
1 -8 28 0
1 -14 -53 0
1 -40 21 0
1 -32 26 0
1 -21 15 0
1 -5 54 0
1 -63 61 0
1 -42 -35 0
1 61 -63 0
1 -47 -35 0
1 -54 66 0
1 -62 13 0
1 53 -30 0
1 -65 0
1 -6 -53 0
1 66 34 0
1 50 -21 0
1 44 23 0
1 13 -14 0
1 25 16 0
1 -70 32 0
1 37 29 0
1 -33 -4 0
1 -35 -65 0
1 -13 -61 0
1 -68 33 0
1 -16 11 0
1 58 48 0
1 45 0
1 9 40 0
1 -64 7 0
1 15 0
1 -23 -67 0
1 -23 -58 0
1 17 69 0
1 14 61 0
1 47 43 0
1 -27 -36 0
1 53 49 0
1 62 -44 0
1 35 57 0
1 50 -8 0
1 -69 58 0
1 -11 -24 0
1 11 -22 0
1 48 3 0
1 25 -64 0
1 21 70 0
1 -15 32 0
1 -49 9 0
1 59 48 0
1 2 36 0
1 39 -69 0
1 -19 -8 0
1 -26 56 0
1 -61 -18 0
1 63 -52 0
1 -69 0
1 -19 29 0
1 -39 28 0
1 32 -28 0
1 -7 59 0
1 33 -16 0
1 -41 62 0
1 65 28 0
1 -58 61 0
1 34 10 0
1 -30 -67 0
1 -11 64 0
1 6 -25 0
1 65 -42 0
1 10 -56 0
1 -22 45 0
1 -47 59 0
1 30 63 0
1 -56 -62 0
1 -5 37 0
1 24 4 0
1 43 -69 0
1 -54 -49 0
1 -18 -42 0
1 54 -42 0
1 33 0
1 46 -40 0
1 46 28 0
1 -15 -16 0
1 -69 -67 0
1 -13 -67 0
1 -59 -43 0
1 -62 24 0
1 -7 -31 0
1 -66 65 0
1 -59 -53 0
1 10 -12 0
1 -64 -16 0
1 61 -32 0
1 55 -58 0
1 70 -23 0
1 47 -49 0
1 5 25 0
1 40 -12 0
1 -50 41 0
1 45 20 0
1 43 0
1 -21 -36 0
1 69 -66 0
1 -12 -35 0
1 18 34 0
1 55 25 0
1 16 -70 0
1 15 -56 0
1 20 68 0
1 -52 -6 0
1 -40 5 0
1 37 63 0
1 -51 -16 0
1 -14 -13 0
1 -9 50 0
1 -23 39 0
1 48 62 0
1 -58 -69 0
1 32 -5 0
1 46 -63 0
1 -19 -70 0
1 31 -5 0
1 13 0
1 -16 54 0
1 -26 9 0
1 -58 -52 0
1 35 -56 0
1 -35 38 0
1 50 14 0
1 69 -66 0
1 -53 -19 0
1 -19 -55 0
1 -29 -40 0
1 -12 -26 0
1 29 -51 0
1 15 4 0
1 -28 51 0
1 11 29 0
1 -43 0
1 -66 56 0
1 -67 4 0
1 63 70 0
1 -51 26 0
1 14 -17 0
1 -25 38 0
1 -28 -24 0
1 -26 66 0
1 33 20 0
1 -8 -63 0
1 52 31 0
1 -21 -43 0
1 -13 -62 0
1 -7 -69 0
1 63 -39 0
1 59 -67 0
1 10 -67 0
1 23 61 0
1 64 -37 0
1 4 45 0
1 -35 -37 0
1 -43 22 0
1 57 -54 0
1 49 53 0
1 7 -51 0
1 51 -60 0
1 -56 -14 0
