c Generated CNF formula
p cnf 50 200
1 43 -15 0
1 35 15 0
1 -32 -29 0
1 -47 49 0
1 22 14 0
1 -8 40 0
1 -40 -14 0
1 46 -15 0
1 10 -20 0
1 -39 -49 0
1 13 -18 0
1 -9 -33 0
1 2 -41 0
1 18 42 0
1 -19 -22 0
1 -42 0
1 26 0
1 15 33 0
1 3 43 0
1 33 27 0
1 34 23 0
1 21 -8 0
1 6 -3 0
1 -13 -28 0
1 -26 -20 0
1 -48 -29 0
1 -25 -49 0
1 16 9 0
1 25 27 0
1 39 -3 0
1 -16 -29 0
1 32 44 0
1 50 37 0
1 2 -16 0
1 34 -14 0
1 15 0
1 34 -44 0
1 49 0
1 18 19 0
1 -21 34 0
1 3 17 0
1 46 41 0
1 -15 -22 0
1 -39 -18 0
1 29 15 0
1 -6 -44 0
1 14 -9 0
1 6 -42 0
1 -21 -20 0
1 -42 38 0
1 10 -34 0
1 -11 -3 0
1 50 16 0
1 -13 50 0
1 46 -20 0
1 -34 43 0
1 2 25 0
1 48 20 0
1 37 -35 0
1 12 5 0
1 50 -9 0
1 27 -35 0
1 -21 15 0
1 47 33 0
1 26 0
1 43 39 0
1 -6 -13 0
1 -27 0
1 -22 -27 0
1 -20 -6 0
1 23 -2 0
1 30 -46 0
1 36 29 0
1 21 -47 0
1 -17 -18 0
1 -11 -47 0
1 18 37 0
1 -9 36 0
1 14 44 0
1 7 27 0
1 -17 -19 0
1 43 -15 0
1 36 -44 0
1 -38 -11 0
1 -28 0
1 33 50 0
1 -30 47 0
1 47 23 0
1 -44 4 0
1 34 38 0
1 8 41 0
1 -41 -7 0
1 33 -10 0
1 12 0
1 -50 -41 0
1 -37 -44 0
1 -43 42 0
1 25 22 0
1 2 26 0
1 23 -27 0
1 28 0
1 -17 0
1 13 39 0
1 37 -24 0
1 -35 15 0
1 23 -36 0
1 47 46 0
1 -33 -47 0
1 39 -46 0
1 -48 34 0
1 15 -49 0
1 -37 19 0
1 -19 -13 0
1 4 -16 0
1 47 0
1 -16 11 0
1 13 47 0
1 -21 30 0
1 -7 -44 0
1 19 -49 0
1 -44 -33 0
1 30 -46 0
1 6 -3 0
1 -13 0
1 -2 -24 0
1 -48 0
1 -30 -45 0
1 -2 10 0
1 14 -38 0
1 50 15 0
1 35 -47 0
1 50 49 0
1 45 -39 0
1 -46 -23 0
1 -18 29 0
1 -12 -13 0
1 -5 -18 0
1 5 32 0
1 -5 33 0
1 25 -22 0
1 15 26 0
1 -41 -2 0
1 -37 36 0
1 -49 -21 0
1 -34 33 0
1 -39 0
1 -15 -46 0
1 -8 30 0
1 -16 29 0
1 31 -13 0
1 -19 -22 0
1 41 -4 0
1 -47 -10 0
1 10 12 0
1 -19 -45 0
1 48 -35 0
1 -39 -14 0
1 -37 25 0
1 29 -3 0
1 41 16 0
1 -36 27 0
1 -20 9 0
1 -48 -6 0
1 29 -14 0
1 -15 -16 0
1 22 8 0
1 -17 -28 0
1 15 -28 0
1 -13 0
1 20 27 0
1 -16 50 0
1 49 -44 0
1 45 -14 0
1 -43 -26 0
1 18 28 0
1 29 -26 0
1 48 -34 0
1 21 24 0
1 10 20 0
1 41 -39 0
1 49 -8 0
1 -31 -14 0
1 -46 16 0
1 -43 16 0
1 -31 25 0
1 -50 14 0
1 -48 0
1 -21 11 0
1 -10 -2 0
1 -24 17 0
1 13 -30 0
1 27 50 0
1 32 -49 0
1 -17 6 0
1 4 -45 0
1 -14 40 0
1 46 4 0
1 -23 -11 0
1 7 34 0
1 -23 48 0
