c Generated CNF formula
p cnf 80 320
1 -72 20 0
1 57 28 0
1 -45 77 0
1 75 -27 0
1 -25 28 0
1 -55 -79 0
1 -4 2 0
1 -34 0
1 51 42 0
1 55 32 0
1 35 14 0
1 40 17 0
1 -40 72 0
1 -78 -35 0
1 77 66 0
1 59 27 0
1 -30 10 0
1 -42 -33 0
1 70 -52 0
1 43 13 0
1 -14 69 0
1 20 -18 0
1 -59 17 0
1 -66 -31 0
1 27 75 0
1 -41 -43 0
1 73 -6 0
1 24 -68 0
1 -25 -39 0
1 7 -20 0
1 -39 -45 0
1 30 -51 0
1 -62 47 0
1 -3 10 0
1 -5 56 0
1 -70 -79 0
1 -22 -27 0
1 -29 28 0
1 -31 -16 0
1 79 -2 0
1 -36 63 0
1 63 49 0
1 18 -50 0
1 51 35 0
1 -79 45 0
1 -55 -51 0
1 27 -16 0
1 51 32 0
1 64 4 0
1 -22 -47 0
1 -16 -69 0
1 -51 17 0
1 -67 -27 0
1 45 10 0
1 45 68 0
1 12 -75 0
1 -34 70 0
1 -27 -79 0
1 -52 -38 0
1 -16 11 0
1 -13 -52 0
1 -74 -28 0
1 -25 44 0
1 -73 -60 0
1 37 54 0
1 -39 24 0
1 -14 -71 0
1 67 24 0
1 14 -29 0
1 -70 28 0
1 27 46 0
1 11 -38 0
1 -42 -79 0
1 -12 -62 0
1 -73 45 0
1 -76 72 0
1 -19 40 0
1 72 -30 0
1 -70 -67 0
1 -56 47 0
1 30 14 0
1 39 34 0
1 -78 54 0
1 -77 38 0
1 33 -45 0
1 40 37 0
1 -21 -6 0
1 -24 -73 0
1 66 -21 0
1 68 50 0
1 -14 -18 0
1 -31 -18 0
1 3 -78 0
1 21 -12 0
1 22 -47 0
1 -37 -77 0
1 14 -36 0
1 59 3 0
1 -46 77 0
1 -17 76 0
1 50 73 0
1 69 16 0
1 -23 71 0
1 9 27 0
1 34 -61 0
1 11 40 0
1 -29 -36 0
1 72 -31 0
1 32 44 0
1 19 50 0
1 -32 -11 0
1 -18 63 0
1 -27 38 0
1 -48 -75 0
1 28 -3 0
1 23 78 0
1 -49 -7 0
1 37 2 0
1 63 62 0
1 53 4 0
1 18 16 0
1 -4 -7 0
1 -48 -26 0
1 31 -48 0
1 37 -69 0
1 48 23 0
1 20 -29 0
1 38 58 0
1 77 -37 0
1 -59 74 0
1 -62 -31 0
1 17 9 0
1 -36 51 0
1 26 -36 0
1 6 -71 0
1 77 3 0
1 -69 -8 0
1 61 65 0
1 47 39 0
1 19 -71 0
1 18 -16 0
1 -68 -3 0
1 -32 -63 0
1 -29 -20 0
1 -49 -73 0
1 7 77 0
1 10 -59 0
1 70 -54 0
1 -78 9 0
1 -44 -40 0
1 -59 9 0
1 25 -16 0
1 -4 76 0
1 36 58 0
1 -73 -28 0
1 5 -61 0
1 -15 73 0
1 24 -78 0
1 -34 39 0
1 9 -3 0
1 56 64 0
1 46 64 0
1 5 -9 0
1 64 -3 0
1 9 32 0
1 -54 53 0
1 -63 -79 0
1 73 -23 0
1 -10 -43 0
1 -26 18 0
1 -10 -21 0
1 -19 7 0
1 73 27 0
1 -74 71 0
1 12 26 0
1 32 -62 0
1 -68 34 0
1 23 -37 0
1 -79 -13 0
1 -40 -67 0
1 -28 -58 0
1 31 47 0
1 45 19 0
1 -33 -67 0
1 -39 -75 0
1 48 75 0
1 41 -40 0
1 -21 -7 0
1 16 79 0
1 30 22 0
1 25 78 0
1 -67 6 0
1 -67 49 0
1 69 -70 0
1 54 23 0
1 -67 72 0
1 63 -64 0
1 50 51 0
1 -58 -5 0
1 -45 -56 0
1 3 -4 0
1 51 71 0
1 -32 68 0
1 47 60 0
1 52 -23 0
1 -37 68 0
1 63 32 0
1 -30 0
1 41 11 0
1 32 69 0
1 -76 -67 0
1 -60 -36 0
1 -41 15 0
1 2 62 0
1 -41 -71 0
1 21 -55 0
1 -28 -56 0
1 15 17 0
1 -11 -61 0
1 -62 -61 0
1 56 -49 0
1 -76 -40 0
1 45 -60 0
1 -29 -10 0
1 -46 49 0
1 -43 0
1 34 80 0
1 18 -40 0
1 26 48 0
1 18 -44 0
1 -7 -27 0
1 -20 -53 0
1 62 -68 0
1 -8 47 0
1 50 68 0
1 34 0
1 -20 26 0
1 -42 36 0
1 52 -34 0
1 -67 71 0
1 40 -67 0
1 42 -38 0
1 66 61 0
1 53 -75 0
1 14 -45 0
1 -40 -35 0
1 -3 68 0
1 -79 73 0
1 -59 30 0
1 54 -53 0
1 -44 33 0
1 -62 -44 0
1 -64 -76 0
1 -10 0
1 6 57 0
1 61 -23 0
1 -60 -8 0
1 -14 -70 0
1 -7 -80 0
1 51 -59 0
1 33 45 0
1 72 17 0
1 -14 0
1 -36 45 0
1 58 51 0
1 -22 77 0
1 -78 -59 0
1 -48 -70 0
1 -43 -53 0
1 -60 64 0
1 -76 -65 0
1 -59 77 0
1 -23 -68 0
1 -77 50 0
1 63 40 0
1 24 -52 0
1 58 -64 0
1 25 -64 0
1 79 25 0
1 -70 -51 0
1 48 -72 0
1 -21 -49 0
1 -66 52 0
1 -34 -76 0
1 -28 30 0
1 -28 76 0
1 16 -50 0
1 -20 46 0
1 48 24 0
1 79 -71 0
1 -48 21 0
1 -41 -2 0
1 -23 58 0
1 78 -26 0
1 21 -44 0
1 62 45 0
1 2 16 0
1 64 -78 0
1 51 24 0
1 -65 -13 0
1 -54 -22 0
1 -27 12 0
1 28 59 0
1 -31 -63 0
1 56 12 0
1 -19 -36 0
1 11 -24 0
1 -11 0
1 58 11 0
1 -39 76 0
1 -19 68 0
1 -66 -13 0
1 10 -65 0
1 -12 39 0
1 17 77 0
1 -24 16 0
1 -10 -16 0
1 71 -73 0
1 -63 -76 0
1 -19 -67 0
