c Generated CNF formula
p cnf 20 80
1 19 -5 0
1 -9 -16 0
1 9 13 0
1 -11 16 0
1 -20 -13 0
1 12 9 0
1 6 -9 0
1 -4 3 0
1 10 0
1 13 -17 0
1 12 7 0
1 9 19 0
1 -15 0
1 6 0
1 -13 0
1 4 -8 0
1 -2 -5 0
1 -20 6 0
1 -11 19 0
1 -6 9 0
1 17 0
1 4 -3 0
1 -11 17 0
1 8 0
1 -8 7 0
1 -18 -19 0
1 16 -17 0
1 19 -13 0
1 -5 0
1 -18 0
1 -20 9 0
1 -14 -11 0
1 19 0
1 -20 -12 0
1 -5 -20 0
1 -12 6 0
1 16 4 0
1 -10 11 0
1 -6 -14 0
1 -19 12 0
1 -11 0
1 -17 -8 0
1 18 -20 0
1 -14 16 0
1 8 19 0
1 18 -7 0
1 -20 3 0
1 -14 -18 0
1 4 -11 0
1 12 19 0
1 11 2 0
1 -17 -5 0
1 18 0
1 -9 -11 0
1 -12 19 0
1 -8 17 0
1 10 4 0
1 -18 3 0
1 -10 6 0
1 -20 -17 0
1 -6 -12 0
1 18 -6 0
1 19 -10 0
1 -17 -11 0
1 -9 20 0
1 15 -13 0
1 -15 -14 0
1 15 -4 0
1 -16 -14 0
1 17 -15 0
1 -8 -18 0
1 -7 0
1 -12 -6 0
1 2 0
1 11 12 0
1 -18 17 0
1 -17 -15 0
1 9 -5 0
1 15 -16 0
1 -11 -3 0
