c Generated CNF formula
p cnf 40 160
1 13 37 0
1 -30 0
1 37 17 0
1 -16 13 0
1 40 3 0
1 21 34 0
1 -38 28 0
1 -26 -39 0
1 14 -8 0
1 4 -34 0
1 -16 -11 0
1 16 12 0
1 8 4 0
1 -25 34 0
1 17 36 0
1 -11 20 0
1 12 0
1 -27 19 0
1 19 -35 0
1 2 0
1 39 25 0
1 -4 11 0
1 -27 -7 0
1 2 17 0
1 -24 -40 0
1 -10 -5 0
1 -14 -10 0
1 32 22 0
1 35 10 0
1 -29 -35 0
1 -6 25 0
1 15 16 0
1 11 30 0
1 -8 26 0
1 18 -24 0
1 16 13 0
1 35 -29 0
1 -34 -10 0
1 -26 29 0
1 13 34 0
1 39 -25 0
1 -23 -21 0
1 22 32 0
1 -5 0
1 9 17 0
1 -22 -40 0
1 9 12 0
1 17 -10 0
1 -29 37 0
1 -33 40 0
1 15 -3 0
1 22 5 0
1 29 -13 0
1 -26 -3 0
1 20 0
1 -30 3 0
1 9 -3 0
1 16 23 0
1 -9 5 0
1 29 -32 0
1 9 -17 0
1 16 -25 0
1 21 30 0
1 -30 21 0
1 -26 -23 0
1 11 -21 0
1 -10 0
1 -38 -18 0
1 14 -8 0
1 13 26 0
1 4 -9 0
1 33 -30 0
1 -2 24 0
1 -27 -21 0
1 5 9 0
1 5 37 0
1 32 10 0
1 -13 -16 0
1 -37 -14 0
1 27 -18 0
1 11 -2 0
1 -28 -27 0
1 24 28 0
1 -7 -2 0
1 -5 25 0
1 -37 30 0
1 3 -33 0
1 -7 -19 0
1 -13 6 0
1 -33 34 0
1 -15 -10 0
1 -28 13 0
1 -10 -11 0
1 -3 -35 0
1 27 -28 0
1 18 29 0
1 -8 3 0
1 -37 -4 0
1 13 3 0
1 -20 -16 0
1 -11 0
1 -40 39 0
1 22 33 0
1 33 20 0
1 16 23 0
1 -31 -33 0
1 -29 0
1 30 -6 0
1 -36 19 0
1 -12 22 0
1 -15 16 0
1 -30 9 0
1 -15 3 0
1 3 -2 0
1 27 -37 0
1 -20 -3 0
1 -7 38 0
1 -33 16 0
1 39 10 0
1 -22 37 0
1 -33 -26 0
1 39 2 0
1 -10 4 0
1 -27 32 0
1 39 36 0
1 -20 0
1 30 14 0
1 10 19 0
1 7 14 0
1 6 35 0
1 -10 0
1 -35 0
1 34 -2 0
1 10 -32 0
1 -26 8 0
1 -24 0
1 38 27 0
1 2 0
1 34 8 0
1 33 2 0
1 30 -10 0
1 28 3 0
1 -3 5 0
1 -6 19 0
1 -9 0
1 -8 -24 0
1 34 26 0
1 -4 -14 0
1 -36 38 0
1 38 -33 0
1 3 0
1 -27 36 0
1 -40 0
1 -24 -10 0
1 33 -39 0
1 2 24 0
1 -39 -19 0
1 -27 -18 0
1 25 -29 0
1 16 32 0
