c Generated CNF formula
p cnf 60 240
1 -53 22 0
1 -30 7 0
1 -57 54 0
1 8 0
1 18 -35 0
1 26 42 0
1 19 -55 0
1 22 0
1 9 -28 0
1 -26 -48 0
1 20 -46 0
1 9 -17 0
1 -53 56 0
1 31 -57 0
1 -52 -6 0
1 16 -3 0
1 40 0
1 19 37 0
1 -50 51 0
1 22 29 0
1 29 8 0
1 54 50 0
1 40 -56 0
1 -57 -47 0
1 17 -26 0
1 -29 25 0
1 56 -57 0
1 -44 -52 0
1 23 -6 0
1 54 18 0
1 -44 -25 0
1 27 36 0
1 30 6 0
1 3 8 0
1 -9 52 0
1 18 -42 0
1 23 -41 0
1 34 33 0
1 -8 55 0
1 9 4 0
1 48 26 0
1 29 22 0
1 -57 -58 0
1 -20 -55 0
1 38 23 0
1 13 -9 0
1 -5 44 0
1 12 4 0
1 -17 45 0
1 -2 -32 0
1 -17 -2 0
1 45 2 0
1 54 -6 0
1 -60 -27 0
1 30 28 0
1 -18 -49 0
1 -29 21 0
1 29 5 0
1 -20 -23 0
1 -45 -48 0
1 -21 40 0
1 -15 -22 0
1 59 -22 0
1 30 -24 0
1 18 22 0
1 38 -26 0
1 -21 53 0
1 31 -17 0
1 55 58 0
1 -6 -49 0
1 14 -4 0
1 -45 5 0
1 50 -33 0
1 27 -13 0
1 49 -25 0
1 57 -30 0
1 -40 -60 0
1 21 3 0
1 59 35 0
1 -57 6 0
1 -53 51 0
1 -40 -51 0
1 -56 12 0
1 4 -29 0
1 -24 -23 0
1 33 -34 0
1 -59 53 0
1 60 0
1 -55 -22 0
1 -2 39 0
1 -50 0
1 39 45 0
1 13 52 0
1 10 -38 0
1 -28 18 0
1 -23 -58 0
1 47 31 0
1 -4 43 0
1 60 -48 0
1 -10 25 0
1 41 -10 0
1 10 40 0
1 -49 59 0
1 8 12 0
1 -49 -11 0
1 3 31 0
1 -26 -11 0
1 -31 8 0
1 -17 55 0
1 -47 32 0
1 60 -27 0
1 22 -4 0
1 -48 59 0
1 -45 -3 0
1 50 -22 0
1 3 25 0
1 -15 11 0
1 -6 -11 0
1 13 -18 0
1 -34 39 0
1 13 31 0
1 18 57 0
1 37 24 0
1 35 30 0
1 31 -26 0
1 9 24 0
1 -52 22 0
1 -38 -50 0
1 2 -18 0
1 48 24 0
1 -47 -45 0
1 -60 53 0
1 21 -29 0
1 26 0
1 -59 36 0
1 -50 29 0
1 34 -37 0
1 -55 -44 0
1 59 55 0
1 32 15 0
1 -10 -36 0
1 59 42 0
1 -13 26 0
1 3 -21 0
1 -13 10 0
1 34 60 0
1 47 -58 0
1 5 11 0
1 -29 -33 0
1 24 -44 0
1 60 -17 0
1 -17 -23 0
1 27 -54 0
1 14 10 0
1 -13 -29 0
1 -55 -33 0
1 -12 -31 0
1 -32 -26 0
1 -2 30 0
1 -47 -24 0
1 55 60 0
1 52 46 0
1 -37 9 0
1 28 0
1 28 11 0
1 -43 0
1 -43 52 0
1 9 27 0
1 -17 -47 0
1 -2 17 0
1 -22 0
1 -5 27 0
1 12 19 0
1 -53 -2 0
1 7 -19 0
1 -30 23 0
1 -27 40 0
1 -35 53 0
1 -52 -11 0
1 19 6 0
1 22 0
1 27 -55 0
1 24 -44 0
1 -20 27 0
1 -31 21 0
1 17 -24 0
1 44 52 0
1 54 -15 0
1 -25 44 0
1 33 19 0
1 -17 33 0
1 -15 -26 0
1 25 42 0
1 4 54 0
1 -29 -60 0
1 -26 4 0
1 19 36 0
1 -11 39 0
1 54 44 0
1 35 -29 0
1 8 -11 0
1 44 -9 0
1 -16 5 0
1 -47 -11 0
1 16 -4 0
1 22 15 0
1 30 -42 0
1 28 -26 0
1 8 -7 0
1 50 -5 0
1 -25 -20 0
1 -27 -12 0
1 51 36 0
1 -59 -7 0
1 -29 -26 0
1 -21 10 0
1 48 -56 0
1 -42 25 0
1 29 -41 0
1 53 5 0
1 7 17 0
1 29 -10 0
1 -4 35 0
1 13 -57 0
1 56 31 0
1 37 0
1 46 -49 0
1 -44 2 0
1 -29 4 0
1 -56 -42 0
1 55 30 0
1 -4 0
1 -28 45 0
1 51 -54 0
1 -21 -29 0
1 -18 52 0
1 -13 58 0
1 28 15 0
1 -46 6 0
1 -56 -41 0
