c Generated CNF formula
p cnf 30 120
1 13 0
1 -13 19 0
1 -11 4 0
1 4 17 0
1 11 4 0
1 -20 5 0
1 -4 0
1 4 14 0
1 -2 -30 0
1 12 0
1 5 -16 0
1 2 16 0
1 -23 13 0
1 15 -27 0
1 13 -23 0
1 18 -27 0
1 -4 -21 0
1 -7 2 0
1 -29 0
1 12 16 0
1 -28 -20 0
1 2 18 0
1 29 -10 0
1 -18 30 0
1 4 -9 0
1 26 12 0
1 -21 -17 0
1 -17 -23 0
1 15 -13 0
1 28 20 0
1 -24 23 0
1 25 -24 0
1 20 21 0
1 11 20 0
1 -2 19 0
1 -24 -10 0
1 9 -2 0
1 -15 14 0
1 9 -2 0
1 -3 24 0
1 -18 -25 0
1 -26 8 0
1 15 -11 0
1 2 13 0
1 -18 10 0
1 -21 -28 0
1 -17 -12 0
1 -4 -29 0
1 26 -27 0
1 13 -29 0
1 -12 18 0
1 30 23 0
1 18 0
1 -21 -20 0
1 3 7 0
1 23 -29 0
1 18 -15 0
1 -6 12 0
1 19 11 0
1 -29 -21 0
1 27 23 0
1 10 0
1 -4 15 0
1 -12 0
1 11 -13 0
1 -2 28 0
1 25 -24 0
1 -2 -9 0
1 -19 -2 0
1 19 3 0
1 16 0
1 -22 -5 0
1 -17 -28 0
1 -19 -13 0
1 -29 2 0
1 16 -22 0
1 -11 5 0
1 12 9 0
1 -20 19 0
1 6 -7 0
1 -7 2 0
1 -12 -20 0
1 -21 10 0
1 -18 -20 0
1 27 -26 0
1 -2 -27 0
1 -15 -16 0
1 4 -7 0
1 -17 -2 0
1 -21 -19 0
1 -6 -15 0
1 6 16 0
1 20 -23 0
1 -10 -15 0
1 -21 26 0
1 -20 -27 0
1 -28 -21 0
1 -27 24 0
1 30 8 0
1 -24 -12 0
1 -26 -20 0
1 -7 -20 0
1 -11 18 0
1 -16 9 0
1 24 12 0
1 30 4 0
1 -16 2 0
1 14 -15 0
1 10 0
1 3 -10 0
1 -8 6 0
1 24 -2 0
1 6 -12 0
1 -3 10 0
1 10 0
1 -8 0
1 4 20 0
1 7 9 0
1 5 7 0
1 -29 12 0
