c Generated CNF formula
p cnf 90 360
1 53 87 0
1 -38 -6 0
1 -54 62 0
1 -50 -22 0
1 -34 0
1 44 78 0
1 -89 -25 0
1 -63 -51 0
1 -8 47 0
1 -49 -34 0
1 -41 2 0
1 12 51 0
1 -33 -23 0
1 -38 -71 0
1 -35 -61 0
1 -29 8 0
1 42 15 0
1 -78 85 0
1 -57 -74 0
1 60 78 0
1 -4 45 0
1 -89 -50 0
1 -38 37 0
1 -32 81 0
1 43 47 0
1 -70 32 0
1 -89 79 0
1 -83 -59 0
1 -85 16 0
1 74 44 0
1 83 74 0
1 -53 30 0
1 52 -81 0
1 66 39 0
1 -60 -53 0
1 -11 87 0
1 -11 -31 0
1 -31 -29 0
1 56 74 0
1 57 43 0
1 59 -78 0
1 81 -75 0
1 -70 -84 0
1 -74 -87 0
1 37 63 0
1 -85 -6 0
1 -46 7 0
1 -82 57 0
1 -31 87 0
1 -24 -78 0
1 -55 -30 0
1 -24 83 0
1 47 -66 0
1 40 -57 0
1 11 20 0
1 43 16 0
1 -69 18 0
1 46 26 0
1 27 -86 0
1 -42 -38 0
1 -60 -22 0
1 -29 -87 0
1 81 2 0
1 43 -24 0
1 51 67 0
1 68 64 0
1 78 4 0
1 54 -7 0
1 30 38 0
1 -8 35 0
1 33 -4 0
1 50 -57 0
1 28 14 0
1 37 35 0
1 -85 54 0
1 10 16 0
1 -29 -11 0
1 22 -44 0
1 -46 -12 0
1 49 -51 0
1 -28 31 0
1 -78 45 0
1 82 -74 0
1 -68 -89 0
1 -34 -67 0
1 77 34 0
1 -69 0
1 32 19 0
1 -81 86 0
1 -14 -44 0
1 45 8 0
1 -8 77 0
1 68 -37 0
1 86 -54 0
1 48 -60 0
1 -27 -4 0
1 -23 -5 0
1 17 -12 0
1 52 -41 0
1 70 81 0
1 46 38 0
1 10 89 0
1 -36 -74 0
1 -54 88 0
1 44 18 0
1 -80 -45 0
1 88 81 0
1 -49 12 0
1 43 0
1 -81 20 0
1 7 -16 0
1 45 42 0
1 -48 -4 0
1 -67 -52 0
1 -50 -42 0
1 -41 68 0
1 34 -60 0
1 65 35 0
1 -13 -81 0
1 -52 37 0
1 4 -35 0
1 58 -18 0
1 -43 -49 0
1 48 67 0
1 -69 -36 0
1 -83 85 0
1 -13 -73 0
1 -51 35 0
1 56 -24 0
1 29 41 0
1 81 58 0
1 39 79 0
1 63 58 0
1 -24 27 0
1 -30 -67 0
1 62 -48 0
1 -30 43 0
1 -24 69 0
1 -19 65 0
1 57 23 0
1 25 -90 0
1 -33 12 0
1 66 -83 0
1 62 27 0
1 -14 -29 0
1 -62 -8 0
1 -72 63 0
1 7 -10 0
1 -81 56 0
1 -26 42 0
1 -37 -19 0
1 67 17 0
1 -46 11 0
1 72 -12 0
1 -28 -57 0
1 70 61 0
1 -44 -79 0
1 -32 10 0
1 -24 62 0
1 35 -8 0
1 26 0
1 -69 0
1 61 -80 0
1 43 -66 0
1 -86 -57 0
1 22 68 0
1 -25 -82 0
1 -69 -63 0
1 39 -17 0
1 25 -82 0
1 -47 54 0
1 71 62 0
1 18 -39 0
1 -49 74 0
1 7 -25 0
1 52 -39 0
1 34 17 0
1 -81 -7 0
1 29 21 0
1 82 -62 0
1 -73 51 0
1 -80 8 0
1 46 -87 0
1 24 -79 0
1 -16 0
1 -41 -44 0
1 90 -42 0
1 66 52 0
1 10 71 0
1 73 51 0
1 -42 5 0
1 22 -68 0
1 -51 -67 0
1 -58 -41 0
1 -24 11 0
1 46 -51 0
1 18 -29 0
1 20 56 0
1 -5 -34 0
1 49 -89 0
1 62 39 0
1 28 14 0
1 -71 -88 0
1 -24 46 0
1 31 -66 0
1 48 -51 0
1 35 -59 0
1 85 88 0
1 17 -68 0
1 -41 -57 0
1 -51 -69 0
1 -86 -81 0
1 -58 33 0
1 -22 37 0
1 -79 -51 0
1 -33 51 0
1 74 -42 0
1 -50 14 0
1 45 35 0
1 -80 46 0
1 -53 3 0
1 26 -79 0
1 50 63 0
1 73 40 0
1 -40 29 0
1 53 -9 0
1 -14 63 0
1 -58 74 0
1 -55 37 0
1 29 71 0
1 -28 23 0
1 88 53 0
1 20 -43 0
1 -32 -22 0
1 28 46 0
1 -24 -74 0
1 -17 -32 0
1 -58 -47 0
1 51 -88 0
1 -38 42 0
1 86 -66 0
1 37 -81 0
1 81 -8 0
1 19 -74 0
1 18 -80 0
1 88 32 0
1 -77 -23 0
1 81 47 0
1 90 -85 0
1 50 -48 0
1 69 -36 0
1 -36 90 0
1 -17 18 0
1 -3 -4 0
1 36 20 0
1 -72 -82 0
1 -65 -83 0
1 -50 55 0
1 24 0
1 88 -65 0
1 55 48 0
1 -63 -32 0
1 -75 11 0
1 -69 -89 0
1 60 61 0
1 -58 16 0
1 -87 -49 0
1 74 47 0
1 -23 57 0
1 -59 86 0
1 -10 33 0
1 22 -54 0
1 40 30 0
1 -67 62 0
1 21 -68 0
1 -75 -61 0
1 42 -5 0
1 -38 4 0
1 47 -46 0
1 -13 89 0
1 82 30 0
1 59 54 0
1 68 -61 0
1 -72 52 0
1 25 60 0
1 40 -30 0
1 -37 -43 0
1 -62 -69 0
1 82 57 0
1 77 -42 0
1 -23 -47 0
1 6 33 0
1 -29 -20 0
1 70 18 0
1 26 -12 0
1 19 65 0
1 -26 46 0
1 48 17 0
1 -44 -89 0
1 -26 -3 0
1 -48 12 0
1 -63 -8 0
1 18 22 0
1 -28 51 0
1 -39 -48 0
1 -78 -58 0
1 61 27 0
1 -11 72 0
1 -23 -60 0
1 33 40 0
1 -50 -67 0
1 76 -74 0
1 -27 26 0
1 -22 -68 0
1 90 18 0
1 -18 0
1 13 -64 0
1 33 -20 0
1 75 84 0
1 -71 6 0
1 86 -32 0
1 65 -25 0
1 15 59 0
1 -3 72 0
1 37 75 0
1 -7 -76 0
1 39 -32 0
1 -74 -83 0
1 -30 73 0
1 -4 -66 0
1 -11 -33 0
1 -34 47 0
1 84 -39 0
1 -36 21 0
1 -75 73 0
1 26 -53 0
1 56 61 0
1 83 22 0
1 -14 -59 0
1 76 -22 0
1 -71 67 0
1 28 9 0
1 -31 42 0
1 -72 -77 0
1 -18 -5 0
1 -75 42 0
1 -24 -68 0
1 45 -77 0
1 -69 -13 0
1 -40 -75 0
1 -26 21 0
1 -15 -18 0
1 -64 -45 0
1 -14 34 0
1 79 68 0
1 36 66 0
1 -85 38 0
1 -85 21 0
1 -3 26 0
1 -36 -39 0
