c Generated CNF formula
p cnf 100 400
1 -69 -19 0
1 -76 0
1 -36 -6 0
1 -68 -34 0
1 97 -33 0
1 -23 -50 0
1 14 -86 0
1 -88 -21 0
1 56 -29 0
1 -92 -12 0
1 3 -22 0
1 -25 -29 0
1 -50 70 0
1 61 64 0
1 19 16 0
1 51 93 0
1 81 84 0
1 20 55 0
1 -6 0
1 -97 -49 0
1 -40 14 0
1 -40 -98 0
1 -55 47 0
1 -16 -15 0
1 -11 -60 0
1 -7 49 0
1 20 8 0
1 -96 -62 0
1 42 -55 0
1 -89 3 0
1 -65 27 0
1 -70 -53 0
1 37 54 0
1 9 -28 0
1 21 78 0
1 17 33 0
1 33 20 0
1 51 61 0
1 -85 -74 0
1 79 -49 0
1 -58 53 0
1 -42 74 0
1 63 6 0
1 53 69 0
1 -58 -5 0
1 34 55 0
1 -18 95 0
1 -40 -34 0
1 7 48 0
1 -16 -61 0
1 70 45 0
1 -61 -2 0
1 37 24 0
1 -25 -16 0
1 49 -39 0
1 80 76 0
1 -80 -35 0
1 8 0
1 -17 -41 0
1 -71 -42 0
1 38 90 0
1 -100 -25 0
1 -70 -90 0
1 99 -40 0
1 29 -45 0
1 -84 71 0
1 22 81 0
1 38 33 0
1 -88 -8 0
1 69 43 0
1 23 43 0
1 -83 2 0
1 -68 78 0
1 14 -8 0
1 -44 -16 0
1 -42 -37 0
1 91 87 0
1 -68 39 0
1 -57 -78 0
1 80 29 0
1 -79 -75 0
1 86 21 0
1 83 -6 0
1 48 81 0
1 24 92 0
1 -63 -7 0
1 78 -96 0
1 44 0
1 -4 17 0
1 -96 -44 0
1 -23 72 0
1 98 32 0
1 -69 71 0
1 15 -69 0
1 -17 -67 0
1 -100 -59 0
1 25 -52 0
1 47 -63 0
1 -17 63 0
1 5 -73 0
1 -75 -82 0
1 23 39 0
1 100 -98 0
1 57 93 0
1 13 45 0
1 -68 -70 0
1 23 -6 0
1 83 8 0
1 13 0
1 40 -25 0
1 33 -97 0
1 14 43 0
1 -23 -76 0
1 10 28 0
1 11 -61 0
1 -84 -81 0
1 -23 -31 0
1 -92 -77 0
1 51 0
1 -94 -41 0
1 99 -64 0
1 -78 -77 0
1 -38 -22 0
1 -41 -24 0
1 47 -4 0
1 -45 5 0
1 99 27 0
1 -86 26 0
1 68 -98 0
1 35 3 0
1 0
1 31 85 0
1 88 -8 0
1 -15 28 0
1 -22 -71 0
1 53 -92 0
1 5 -56 0
1 -10 87 0
1 -48 58 0
1 71 -94 0
1 -53 37 0
1 -44 29 0
1 16 -83 0
1 -19 26 0
1 72 -31 0
1 96 -52 0
1 -80 88 0
1 -96 -40 0
1 -75 -50 0
1 -100 82 0
1 -85 73 0
1 -97 54 0
1 -6 -70 0
1 -48 -70 0
1 82 -45 0
1 -14 -53 0
1 9 41 0
1 -45 -65 0
1 94 8 0
1 63 -58 0
1 58 -52 0
1 11 72 0
1 -37 88 0
1 -72 -56 0
1 -38 -25 0
1 16 30 0
1 -97 -95 0
1 -13 -70 0
1 -77 81 0
1 5 51 0
1 -26 28 0
1 18 -45 0
1 40 26 0
1 25 26 0
1 21 0
1 31 -25 0
1 -31 4 0
1 -93 2 0
1 36 39 0
1 -45 -82 0
1 -24 -63 0
1 77 21 0
1 -44 -54 0
1 -86 -35 0
1 -81 -69 0
1 -44 86 0
1 -71 29 0
1 85 -64 0
1 -14 78 0
1 -2 -12 0
1 -70 -34 0
1 81 -39 0
1 19 -26 0
1 -57 21 0
1 67 -87 0
1 -49 -36 0
1 67 41 0
1 5 -19 0
1 -29 27 0
1 66 -58 0
1 27 69 0
1 77 -76 0
1 2 -14 0
1 -24 75 0
1 -11 -47 0
1 -89 18 0
1 58 78 0
1 94 13 0
1 73 -36 0
1 -55 28 0
1 -10 64 0
1 -29 7 0
1 -79 -42 0
1 -82 35 0
1 -70 76 0
1 -94 41 0
1 -68 0
1 -42 14 0
1 -43 -78 0
1 51 24 0
1 31 -98 0
1 50 -73 0
1 -24 -75 0
1 15 52 0
1 44 -98 0
1 82 -91 0
1 70 -100 0
1 40 -20 0
1 -29 -19 0
1 -22 -68 0
1 79 59 0
1 -69 -60 0
1 -13 -58 0
1 -53 51 0
1 20 -64 0
1 19 65 0
1 -26 15 0
1 52 -5 0
1 21 53 0
1 -95 -3 0
1 -37 -39 0
1 78 46 0
1 51 52 0
1 76 -5 0
1 -96 76 0
1 -73 64 0
1 2 -75 0
1 28 29 0
1 -19 -22 0
1 -6 -18 0
1 -18 66 0
1 -96 -92 0
1 -83 66 0
1 64 -100 0
1 90 -27 0
1 -82 -94 0
1 -32 45 0
1 -78 52 0
1 -19 -7 0
1 -87 -77 0
1 9 -63 0
1 -83 29 0
1 55 82 0
1 9 -7 0
1 -50 -12 0
1 89 8 0
1 52 -67 0
1 98 -83 0
1 61 45 0
1 -55 78 0
1 83 -19 0
1 -28 -95 0
1 11 -19 0
1 83 50 0
1 -81 82 0
1 -4 93 0
1 15 -37 0
1 6 98 0
1 -8 84 0
1 97 -36 0
1 45 -54 0
1 53 -87 0
1 22 -6 0
1 15 -19 0
1 100 -52 0
1 -91 16 0
1 -85 0
1 -70 15 0
1 -60 -29 0
1 -93 96 0
1 65 85 0
1 -33 -95 0
1 65 87 0
1 70 67 0
1 -76 -38 0
1 27 80 0
1 62 -82 0
1 36 48 0
1 42 63 0
1 -53 -38 0
1 -69 97 0
1 -76 -8 0
1 -60 -96 0
1 -94 -69 0
1 9 51 0
1 -96 86 0
1 7 5 0
1 -5 25 0
1 40 -77 0
1 73 -11 0
1 62 -10 0
1 -63 -22 0
1 81 -73 0
1 -18 23 0
1 55 -40 0
1 -76 -98 0
1 -97 -84 0
1 70 18 0
1 65 95 0
1 -61 -46 0
1 -92 -27 0
1 40 43 0
1 71 -100 0
1 -48 69 0
1 -63 59 0
1 -62 0
1 23 52 0
1 73 46 0
1 96 51 0
1 -74 -46 0
1 -45 60 0
1 -25 -62 0
1 -22 -95 0
1 7 63 0
1 -45 96 0
1 95 -17 0
1 32 19 0
1 65 63 0
1 -16 47 0
1 -6 -66 0
1 93 14 0
1 25 70 0
1 -65 -93 0
1 -88 -80 0
1 -18 -56 0
1 -75 28 0
1 68 54 0
1 58 -31 0
1 24 -28 0
1 21 87 0
1 58 92 0
1 55 45 0
1 24 38 0
1 -17 -49 0
1 16 -18 0
1 90 75 0
1 -52 35 0
1 62 -22 0
1 51 38 0
1 22 26 0
1 -50 -76 0
1 6 -9 0
1 -8 37 0
1 52 -89 0
1 71 4 0
1 80 93 0
1 -55 15 0
1 -69 70 0
1 -21 63 0
1 15 20 0
1 -80 -63 0
1 -38 -58 0
1 -2 53 0
1 -85 -26 0
1 23 15 0
1 -66 74 0
1 42 37 0
1 87 -3 0
1 51 80 0
1 93 4 0
1 65 -14 0
1 -32 9 0
1 58 82 0
1 -78 65 0
1 -47 -87 0
1 61 -21 0
1 71 -90 0
1 29 -22 0
1 -18 -2 0
1 -31 -52 0
1 35 -50 0
1 94 -81 0
1 -49 37 0
1 53 -52 0
1 -45 -76 0
1 -97 -13 0
1 64 -41 0
1 72 16 0
1 64 -94 0
1 -5 69 0
