c Generated CNF formula
p cnf 150 600
1 36 106 0
1 15 122 0
1 -42 48 0
1 9 -139 0
1 26 -5 0
1 -12 -72 0
1 -98 -123 0
1 108 102 0
1 -23 101 0
1 20 -27 0
1 55 -146 0
1 126 -68 0
1 3 102 0
1 14 107 0
1 85 -115 0
1 119 133 0
1 115 36 0
1 -134 74 0
1 -140 -46 0
1 132 -6 0
1 -141 -71 0
1 -114 -139 0
1 29 143 0
1 6 11 0
1 12 104 0
1 -44 79 0
1 -113 -40 0
1 59 134 0
1 -134 50 0
1 -127 -23 0
1 -99 51 0
1 -126 36 0
1 -144 10 0
1 -103 25 0
1 13 -51 0
1 -67 -25 0
1 130 -138 0
1 -41 -71 0
1 84 125 0
1 -81 34 0
1 -105 -126 0
1 96 20 0
1 -24 73 0
1 -42 121 0
1 -38 -140 0
1 91 -73 0
1 -117 16 0
1 -81 -124 0
1 39 22 0
1 78 -34 0
1 -35 60 0
1 66 139 0
1 129 74 0
1 75 104 0
1 51 127 0
1 11 25 0
1 79 -110 0
1 -38 -27 0
1 -60 -94 0
1 -69 7 0
1 146 -123 0
1 140 -59 0
1 65 -11 0
1 -118 -54 0
1 87 -93 0
1 -64 -58 0
1 120 38 0
1 -88 -35 0
1 -17 14 0
1 -117 -48 0
1 28 14 0
1 -64 130 0
1 -70 147 0
1 64 128 0
1 66 -23 0
1 18 140 0
1 -108 -70 0
1 -102 -117 0
1 -93 -69 0
1 -42 -14 0
1 -7 3 0
1 75 -101 0
1 -29 144 0
1 2 -141 0
1 -61 -28 0
1 104 147 0
1 111 -83 0
1 137 -18 0
1 -11 56 0
1 -8 -48 0
1 -147 146 0
1 -36 99 0
1 -101 -92 0
1 -83 -71 0
1 -68 -145 0
1 72 131 0
1 119 -112 0
1 -51 -137 0
1 -58 70 0
1 59 16 0
1 -145 -143 0
1 -144 2 0
1 28 -148 0
1 79 95 0
1 -85 -30 0
1 61 150 0
1 -119 -64 0
1 141 -82 0
1 40 -125 0
1 87 0
1 134 87 0
1 10 -90 0
1 124 -142 0
1 -74 -60 0
1 54 35 0
1 -76 -73 0
1 66 -60 0
1 83 -88 0
1 -9 71 0
1 -38 128 0
1 132 0
1 4 47 0
1 -37 -46 0
1 61 78 0
1 -137 84 0
1 -141 -119 0
1 -13 -75 0
1 126 -115 0
1 20 96 0
1 141 -128 0
1 -61 -99 0
1 99 21 0
1 19 134 0
1 -102 -30 0
1 -67 45 0
1 -86 104 0
1 46 -93 0
1 -104 70 0
1 2 -37 0
1 139 -26 0
1 56 -129 0
1 -14 -48 0
1 143 -25 0
1 127 105 0
1 130 36 0
1 128 58 0
1 -47 -129 0
1 -78 30 0
1 -128 84 0
1 -108 94 0
1 142 40 0
1 60 12 0
1 82 41 0
1 -93 -140 0
1 67 -115 0
1 125 83 0
1 76 -136 0
1 -62 -59 0
1 85 -13 0
1 96 110 0
1 30 116 0
1 -96 -54 0
1 -71 150 0
1 -113 132 0
1 87 100 0
1 112 4 0
1 49 -32 0
1 81 -77 0
1 -134 29 0
1 130 -67 0
1 -7 -73 0
1 63 116 0
1 67 39 0
1 -26 145 0
1 -62 -108 0
1 107 127 0
1 31 -14 0
1 79 9 0
1 -65 75 0
1 35 48 0
1 -96 -99 0
1 -120 -98 0
1 -42 -98 0
1 -97 0
1 -120 -18 0
1 107 84 0
1 77 106 0
1 -98 -97 0
1 -148 -114 0
1 -92 144 0
1 141 -104 0
1 116 65 0
1 -143 104 0
1 7 -102 0
1 97 -28 0
1 141 -145 0
1 42 132 0
1 -125 -106 0
1 -127 16 0
1 -29 66 0
1 48 18 0
1 -47 -82 0
1 98 39 0
1 88 125 0
1 -43 24 0
1 43 -100 0
1 -116 112 0
1 124 90 0
1 -20 -42 0
1 93 144 0
1 -132 -87 0
1 67 35 0
1 33 -7 0
1 -60 -37 0
1 15 38 0
1 20 62 0
1 -21 -90 0
1 -94 140 0
1 132 73 0
1 -29 -23 0
1 54 -8 0
1 -62 115 0
1 32 -46 0
1 -6 -57 0
1 -140 51 0
1 111 52 0
1 -27 71 0
1 -42 -61 0
1 6 -77 0
1 -23 53 0
1 -12 88 0
1 122 -94 0
1 60 -81 0
1 -35 136 0
1 -24 2 0
1 -108 109 0
1 2 -126 0
1 -123 19 0
1 -44 80 0
1 105 4 0
1 -20 -24 0
1 -26 -59 0
1 -90 131 0
1 -70 -115 0
1 15 115 0
1 54 68 0
1 28 -6 0
1 -150 134 0
1 -59 64 0
1 53 -124 0
1 -46 -42 0
1 75 -87 0
1 -35 -98 0
1 50 -95 0
1 -21 -93 0
1 -81 -18 0
1 63 -40 0
1 -77 -59 0
1 -110 99 0
1 26 -33 0
1 144 -77 0
1 59 109 0
1 7 -60 0
1 -102 104 0
1 90 3 0
1 60 -57 0
1 -21 0
1 -131 -118 0
1 115 -4 0
1 -42 7 0
1 -22 97 0
1 56 -75 0
1 -65 -62 0
1 3 -110 0
1 34 138 0
1 3 -82 0
1 20 -115 0
1 -12 -24 0
1 -22 107 0
1 100 -101 0
1 94 19 0
1 -142 100 0
1 -49 -62 0
1 -16 56 0
1 95 -79 0
1 41 -80 0
1 -98 89 0
1 26 125 0
1 87 -10 0
1 -11 119 0
1 64 106 0
1 10 5 0
1 83 24 0
1 -129 116 0
1 -42 -131 0
1 110 -65 0
1 -21 24 0
1 112 -16 0
1 -137 -89 0
1 26 39 0
1 34 72 0
1 68 119 0
1 94 -34 0
1 8 52 0
1 -58 -17 0
1 -37 -124 0
1 -13 -99 0
1 101 143 0
1 81 -48 0
1 -136 -73 0
1 -85 -101 0
1 -80 131 0
1 59 -70 0
1 144 110 0
1 -53 -106 0
1 -82 29 0
1 13 129 0
1 -16 -19 0
1 -17 -8 0
1 31 110 0
1 -78 34 0
1 105 93 0
1 63 -66 0
1 -109 -27 0
1 -129 -84 0
1 -100 -11 0
1 -6 127 0
1 146 -88 0
1 147 -91 0
1 143 -147 0
1 82 -135 0
1 -44 97 0
1 -65 131 0
1 114 -35 0
1 -23 113 0
1 131 -72 0
1 12 46 0
1 12 -67 0
1 59 136 0
1 17 135 0
1 -27 88 0
1 -2 -137 0
1 -119 53 0
1 -56 -22 0
1 137 -36 0
1 -23 35 0
1 -38 -80 0
1 -63 -111 0
1 -27 -35 0
1 146 -113 0
1 -101 57 0
1 -11 -25 0
1 59 48 0
1 106 58 0
1 -13 -5 0
1 -92 -13 0
1 -39 95 0
1 -33 -74 0
1 -75 -85 0
1 -13 -93 0
1 -124 -134 0
1 -140 -114 0
1 81 -40 0
1 -21 -72 0
1 144 145 0
1 75 138 0
1 47 -137 0
1 -55 13 0
1 -63 -13 0
1 135 -119 0
1 -74 -83 0
1 36 17 0
1 -111 -41 0
1 -150 -148 0
1 119 -64 0
1 93 -51 0
1 -91 72 0
1 -48 -13 0
1 -45 105 0
1 32 79 0
1 129 -144 0
1 -4 -137 0
1 95 -6 0
1 -2 -70 0
1 71 142 0
1 65 -55 0
1 -138 105 0
1 34 -111 0
1 -25 92 0
1 37 2 0
1 -2 -19 0
1 118 -26 0
1 129 -7 0
1 -55 -51 0
1 32 -70 0
1 138 -135 0
1 76 47 0
1 -114 118 0
1 131 98 0
1 -138 -135 0
1 147 -76 0
1 -23 43 0
1 -59 -90 0
1 -87 142 0
1 65 3 0
1 59 2 0
1 -104 -111 0
1 73 -16 0
1 56 119 0
1 -9 149 0
1 -16 -85 0
1 110 33 0
1 -33 -17 0
1 121 122 0
1 84 -95 0
1 68 -44 0
1 -87 85 0
1 -69 -142 0
1 -37 126 0
1 98 -2 0
1 -129 -52 0
1 -133 106 0
1 30 68 0
1 -106 99 0
1 43 -22 0
1 95 52 0
1 -97 -132 0
1 -124 57 0
1 20 2 0
1 -89 -87 0
1 -5 66 0
1 16 -37 0
1 68 122 0
1 -3 -123 0
1 -24 -91 0
1 -98 121 0
1 -113 -124 0
1 41 -80 0
1 31 51 0
1 -51 148 0
1 38 76 0
1 -71 -147 0
1 -2 35 0
1 9 22 0
1 110 -10 0
1 -80 -77 0
1 112 -143 0
1 -133 58 0
1 35 -117 0
1 -4 -58 0
1 28 0
1 23 88 0
1 17 131 0
1 142 -52 0
1 -44 -85 0
1 -107 73 0
1 144 2 0
1 -127 102 0
1 15 103 0
1 79 -131 0
1 -2 -66 0
1 -146 148 0
1 -76 2 0
1 -66 -94 0
1 141 -93 0
1 3 123 0
1 23 87 0
1 -47 -120 0
1 -41 118 0
1 -73 100 0
1 29 -107 0
1 68 -17 0
1 2 -49 0
1 -16 144 0
1 54 -22 0
1 16 -66 0
1 -52 -89 0
1 140 -28 0
1 -91 -47 0
1 -37 -122 0
1 45 -70 0
1 -9 -73 0
1 -110 -55 0
1 -87 29 0
1 -137 86 0
1 -64 -16 0
1 -2 -21 0
1 6 -50 0
1 43 97 0
1 -61 140 0
1 129 -22 0
1 -141 -91 0
1 -107 -129 0
1 -137 107 0
1 -35 -89 0
1 -86 -104 0
1 50 -147 0
1 -139 111 0
1 -105 97 0
1 56 -98 0
1 -52 129 0
1 85 -146 0
1 -13 -131 0
1 -71 112 0
1 54 67 0
1 -130 -123 0
1 -119 -7 0
1 95 -81 0
1 77 9 0
1 67 138 0
1 62 128 0
1 -26 -6 0
1 3 -22 0
1 47 72 0
1 28 -102 0
1 -36 20 0
1 -6 -42 0
1 22 -78 0
1 113 100 0
1 148 8 0
1 52 -117 0
1 150 -148 0
1 -42 142 0
1 71 80 0
1 117 -13 0
1 79 -103 0
1 -62 -14 0
1 -122 -127 0
1 -64 -124 0
1 -140 41 0
1 -106 -81 0
1 24 58 0
1 141 56 0
1 -87 -136 0
1 20 -37 0
1 10 117 0
1 7 -2 0
1 -136 56 0
1 -118 -90 0
1 105 87 0
1 111 -43 0
1 -119 142 0
1 -30 -33 0
1 -81 -105 0
1 39 -82 0
1 -17 0
1 97 -8 0
1 127 93 0
1 -147 88 0
1 -9 -79 0
1 -38 86 0
1 -36 -115 0
1 -24 -71 0
1 44 -55 0
1 -53 -77 0
1 82 -120 0
1 26 -108 0
1 75 98 0
1 20 -83 0
1 -3 -129 0
1 64 50 0
1 -56 -149 0
1 -4 68 0
1 75 68 0
1 101 -118 0
1 -49 29 0
1 -87 -32 0
1 -133 12 0
1 -108 22 0
1 116 33 0
1 77 -18 0
1 -123 -39 0
1 -115 -52 0
1 46 -84 0
1 -97 -62 0
1 -108 120 0
1 87 -76 0
1 -61 -79 0
1 91 -16 0
1 117 -107 0
1 132 -109 0
1 50 -74 0
1 -67 -142 0
1 58 97 0
1 -19 2 0
1 9 -86 0
1 -67 63 0
1 108 -36 0
1 -106 -36 0
1 -108 -64 0
1 50 83 0
1 -36 136 0
1 14 131 0
1 -137 -34 0
1 -117 7 0
1 -76 -89 0
1 11 -3 0
1 -57 -97 0
1 4 -137 0
1 -38 85 0
